ATOMIC_SPECIES
Hf 178.492 /home/jinming/1step/Hf_ONCV_PBE-1.0.upf upf201
O 15.999 /home/jinming/1step/O_ONCV_PBE-1.0.upf upf201

NUMERICAL_ORBITAL
/home/jinming/1step/Hf_gga_7au_100Ry_4s2p2d2f1g.orb
/home/jinming/1step/O_gga_7au_100Ry_2s2p1d.orb

LATTICE_CONSTANT
1.889726

LATTICE_VECTORS
   10.0665932900     0.0000000000     0.0000000000 #latvec1
    0.0000000000     9.9683414795     0.0000000000 #latvec2
    0.0000000000     0.0000000000    10.4154614993 #latvec3

ATOMIC_POSITIONS
Cartesian

Hf #label
0 #magnetism
32 #number of atoms
    1.2396100815     1.1514485012     2.7818040934 m  1  1  1 v     0.0000247828    -0.0000090461     0.0000194800
    1.2396100815     1.1514485012     7.9895348431 m  1  1  1 v     0.0000097598    -0.0000207376     0.0000370477
    6.2729067265     1.1514485012     2.7818040934 m  1  1  1 v    -0.0000654706     0.0000152701    -0.0000126565
    6.2729067265     1.1514485012     7.9895348431 m  1  1  1 v     0.0000620365    -0.0000704556     0.0000072736
    3.7936865636     8.8168929783     2.4259266562 m  1  1  1 v     0.0000169427     0.0000461813    -0.0000328200
    3.7936865636     8.8168929783     7.6336574059 m  1  1  1 v    -0.0000008498    -0.0000094567     0.0000096709
    8.8269832086     8.8168929783     2.4259266562 m  1  1  1 v    -0.0000461802    -0.0000082821     0.0000016089
    8.8269832086     8.8168929783     7.6336574059 m  1  1  1 v     0.0000289873     0.0000288941    -0.0000486721
    1.2770382410     8.8168929783     0.1779387186 m  1  1  1 v     0.0000602268     0.0000144809    -0.0000001082
    1.2770382410     8.8168929783     5.3856694683 m  1  1  1 v     0.0000043979    -0.0000219411     0.0000313583
    6.3103348861     8.8168929783     0.1779387186 m  1  1  1 v    -0.0000057577     0.0000515802    -0.0000071710
    6.3103348861     8.8168929783     5.3856694683 m  1  1  1 v     0.0000178452    -0.0000403847    -0.0000287377
    3.7562584040     1.1514485012     5.0297920310 m  1  1  1 v    -0.0000089466    -0.0000255473    -0.0000337591
    3.7562584040     1.1514485012    10.2375227807 m  1  1  1 v     0.0000072803     0.0000270465    -0.0000096168
    8.7895550490     1.1514485012     5.0297920310 m  1  1  1 v    -0.0000128913    -0.0000209386    -0.0000542542
    8.7895550490     1.1514485012    10.2375227807 m  1  1  1 v    -0.0000014128    -0.0000184722     0.0000427111
    3.7562584040     3.8327222385     2.4259266562 m  1  1  1 v    -0.0000057143     0.0000683250     0.0000013265
    3.7562584040     3.8327222385     7.6336574059 m  1  1  1 v    -0.0000286052    -0.0000014015     0.0000233879
    8.7895550490     3.8327222385     2.4259266562 m  1  1  1 v    -0.0000004976     0.0000071815    -0.0000283108
    8.7895550490     3.8327222385     7.6336574059 m  1  1  1 v     0.0000207393     0.0000439495    -0.0000436825
    1.2770382410     6.1356192410     2.7818040934 m  1  1  1 v     0.0000054440    -0.0000266968    -0.0000049834
    1.2770382410     6.1356192410     7.9895348431 m  1  1  1 v     0.0000215604     0.0000330110    -0.0000159055
    6.3103348861     6.1356192410     2.7818040934 m  1  1  1 v    -0.0000184002     0.0000131756    -0.0000341406
    6.3103348861     6.1356192410     7.9895348431 m  1  1  1 v     0.0000320352     0.0000188236     0.0000033707
    3.7936865636     6.1356192410     5.0297920310 m  1  1  1 v     0.0000019806     0.0000308169    -0.0000034448
    3.7936865636     6.1356192410    10.2375227807 m  1  1  1 v     0.0000141662    -0.0000106234     0.0000391017
    8.8269832086     6.1356192410     5.0297920310 m  1  1  1 v    -0.0000022425     0.0000207723    -0.0000028459
    8.8269832086     6.1356192410    10.2375227807 m  1  1  1 v    -0.0000584270     0.0000638296    -0.0000297438
    1.2396100815     3.8327222385     0.1779387186 m  1  1  1 v     0.0000148105    -0.0000446916     0.0000323412
    1.2396100815     3.8327222385     5.3856694683 m  1  1  1 v    -0.0000323820    -0.0000072847    -0.0000477195
    6.2729067265     3.8327222385     0.1779387186 m  1  1  1 v    -0.0000372630    -0.0000170788     0.0000452831
    6.2729067265     3.8327222385     5.3856694683 m  1  1  1 v    -0.0000775201     0.0000010619     0.0000515671

O #label
0 #magnetism
64 #number of atoms
    0.0150465848     0.2256094126     1.2413295607 m  1  1  1 v     0.0001530948    -0.0001017551     0.0001426485
    0.0150465848     0.2256094126     6.4490603104 m  1  1  1 v    -0.0000856320    -0.0000793432    -0.0001056586
    5.0483432298     0.2256094126     1.2413295607 m  1  1  1 v     0.0000419196    -0.0001571401    -0.0000748535
    5.0483432298     0.2256094126     6.4490603104 m  1  1  1 v     0.0000393805    -0.0000353662     0.0000293462
    5.0182500602     9.7427320669     3.9664011890 m  1  1  1 v    -0.0000845498     0.0000558618    -0.0000703979
    5.0182500602     9.7427320669     9.1741319386 m  1  1  1 v    -0.0000072771    -0.0000696180    -0.0000573680
   10.0515467052     9.7427320669     3.9664011890 m  1  1  1 v     0.0000781183     0.0000713312     0.0000081681
   10.0515467052     9.7427320669     9.1741319386 m  1  1  1 v     0.0000134231     0.0000751816     0.0001364644
    2.5016017377     9.7427320669     3.8451949355 m  1  1  1 v    -0.0000064840    -0.0000854832    -0.0000168293
    2.5016017377     9.7427320669     9.0529256852 m  1  1  1 v     0.0001295757     0.0000486273     0.0001627661
    7.5348983827     9.7427320669     3.8451949355 m  1  1  1 v     0.0000275725    -0.0001282371    -0.0001191072
    7.5348983827     9.7427320669     9.0529256852 m  1  1  1 v    -0.0000490005    -0.0002167852     0.0000815768
    2.5316949073     0.2256094126     1.3625358141 m  1  1  1 v     0.0002268302    -0.0001398413     0.0000317823
    2.5316949073     0.2256094126     6.5702665638 m  1  1  1 v    -0.0000783722     0.0000224878     0.0001715176
    7.5649915523     0.2256094126     1.3625358141 m  1  1  1 v     0.0000110293     0.0001084374     0.0001442464
    7.5649915523     0.2256094126     6.5702665638 m  1  1  1 v     0.0000643123     0.0000093839     0.0000066785
    2.5316949073     4.7585613272     3.9664011890 m  1  1  1 v     0.0002123576    -0.0000017018    -0.0000370533
    2.5316949073     4.7585613272     9.1741319386 m  1  1  1 v     0.0000258100     0.0000814654    -0.0001337072
    7.5649915523     4.7585613272     3.9664011890 m  1  1  1 v     0.0000549209    -0.0001352584     0.0001229498
    7.5649915523     4.7585613272     9.1741319386 m  1  1  1 v    -0.0001228190    -0.0000749137    -0.0001204874
    2.5016017377     5.2097801524     1.2413295607 m  1  1  1 v    -0.0000792904     0.0000234043    -0.0001269151
    2.5016017377     5.2097801524     6.4490603104 m  1  1  1 v     0.0000587883     0.0000031293     0.0000515918
    7.5348983827     5.2097801524     1.2413295607 m  1  1  1 v    -0.0001970550     0.0000410307     0.0000361052
    7.5348983827     5.2097801524     6.4490603104 m  1  1  1 v    -0.0000741820    -0.0000783882     0.0002608434
    5.0182500602     5.2097801524     1.3625358141 m  1  1  1 v     0.0000601634    -0.0000058631    -0.0000464350
    5.0182500602     5.2097801524     6.5702665638 m  1  1  1 v     0.0000881853    -0.0001779214     0.0001143457
   10.0515467052     5.2097801524     1.3625358141 m  1  1  1 v     0.0000557007    -0.0000510409     0.0002164986
   10.0515467052     5.2097801524     6.5702665638 m  1  1  1 v    -0.0000317004    -0.0000170490    -0.0002051729
    0.0150465848     4.7585613272     3.8451949355 m  1  1  1 v     0.0000507719    -0.0000900080     0.0000124595
    0.0150465848     4.7585613272     9.0529256852 m  1  1  1 v    -0.0000572692    -0.0000768723     0.0001797168
    5.0483432298     4.7585613272     3.8451949355 m  1  1  1 v     0.0001398783     0.0001210980    -0.0000552745
    5.0483432298     4.7585613272     9.0529256852 m  1  1  1 v    -0.0001248962     0.0001469592     0.0001690839
    0.6492800943     7.0668871701     4.5610007376 m  1  1  1 v     0.0001164085    -0.0000925670     0.0000692560
    0.6492800943     7.0668871701     9.7687314873 m  1  1  1 v    -0.0000963296     0.0000585045     0.0000249152
    5.6825767393     7.0668871701     4.5610007376 m  1  1  1 v     0.0000739820    -0.0001322306     0.0000073696
    5.6825767393     7.0668871701     9.7687314873 m  1  1  1 v    -0.0001031233    -0.0000362465     0.0000603016
    4.3840165507     2.9014543094     0.6467300120 m  1  1  1 v     0.0000190558    -0.0000629302    -0.0000878242
    4.3840165507     2.9014543094     5.8544607617 m  1  1  1 v    -0.0000419769     0.0001632619     0.0001961440
    9.4173131957     2.9014543094     0.6467300120 m  1  1  1 v     0.0000931456    -0.0001296991     0.0001019579
    9.4173131957     2.9014543094     5.8544607617 m  1  1  1 v    -0.0000888415    -0.0000582822    -0.0001096181
    1.8673682282     2.9014543094     1.9571353628 m  1  1  1 v     0.0000940530    -0.0000519450    -0.0001401825
    1.8673682282     2.9014543094     7.1648661125 m  1  1  1 v    -0.0000392443     0.0001111571     0.0000821665
    6.9006648732     2.9014543094     1.9571353628 m  1  1  1 v    -0.0000894389     0.0000405872    -0.0000596779
    6.9006648732     2.9014543094     7.1648661125 m  1  1  1 v     0.0001304532     0.0000444438    -0.0000347010
    3.1659284168     7.0668871701     3.2505953868 m  1  1  1 v     0.0001407263     0.0000267311    -0.0000299089
    3.1659284168     7.0668871701     8.4583261365 m  1  1  1 v     0.0000492638    -0.0000051498     0.0002920701
    8.1992250619     7.0668871701     3.2505953868 m  1  1  1 v    -0.0000913864    -0.0000521476     0.0001197127
    8.1992250619     7.0668871701     8.4583261365 m  1  1  1 v    -0.0000131681    -0.0000111671     0.0001261723
    3.1659284168     7.8856250492     0.6467300120 m  1  1  1 v    -0.0000145026    -0.0001968975    -0.0001016679
    3.1659284168     7.8856250492     5.8544607617 m  1  1  1 v     0.0000479743     0.0000471855    -0.0000716372
    8.1992250619     7.8856250492     0.6467300120 m  1  1  1 v     0.0002559560    -0.0000176346     0.0000812104
    8.1992250619     7.8856250492     5.8544607617 m  1  1  1 v     0.0000431210    -0.0000628716    -0.0000559211
    1.8673682282     2.0827164304     4.5610007376 m  1  1  1 v    -0.0000111111    -0.0001102668    -0.0001000862
    1.8673682282     2.0827164304     9.7687314873 m  1  1  1 v    -0.0000493218    -0.0000192557     0.0000524038
    6.9006648732     2.0827164304     4.5610007376 m  1  1  1 v     0.0000707778     0.0000263080     0.0000428345
    6.9006648732     2.0827164304     9.7687314873 m  1  1  1 v     0.0000296912    -0.0000033690    -0.0002240187
    4.3840165507     2.0827164304     3.2505953868 m  1  1  1 v    -0.0001264621     0.0001759967     0.0000700304
    4.3840165507     2.0827164304     8.4583261365 m  1  1  1 v    -0.0001655255    -0.0000819257     0.0000315865
    9.4173131957     2.0827164304     3.2505953868 m  1  1  1 v    -0.0001061760    -0.0001462812    -0.0000283456
    9.4173131957     2.0827164304     8.4583261365 m  1  1  1 v    -0.0000796397    -0.0000105388     0.0000748374
    0.6492800943     7.8856250492     1.9571353628 m  1  1  1 v     0.0000490091    -0.0001655379     0.0000774332
    0.6492800943     7.8856250492     7.1648661125 m  1  1  1 v     0.0001168565    -0.0000028314    -0.0001305692
    5.6825767393     7.8856250492     1.9571353628 m  1  1  1 v     0.0000832272     0.0000327690     0.0000095279
    5.6825767393     7.8856250492     7.1648661125 m  1  1  1 v    -0.0001662204     0.0001714950    -0.0002172680
