ATOMIC_SPECIES
Ti  47.8670 /home/zxd/abacus/PSEUDO/ABACUS-orbitals/Dojo-NC-FR/Pseudopotential/Ti.upf upf201
N  14.0070 /home/zxd/abacus/PSEUDO/ABACUS-orbitals/Dojo-NC-FR/Pseudopotential/N.upf upf201
B  10.8100 /home/zxd/abacus/PSEUDO/ABACUS-orbitals/Dojo-NC-FR/Pseudopotential/B.upf upf201

NUMERICAL_ORBITAL
/home/zxd/abacus/PSEUDO/ABACUS-orbitals/Dojo-NC-FR/DZP-10au/Ti_gga_10au_100Ry_4s2p2d1f.orb
/home/zxd/abacus/PSEUDO/ABACUS-orbitals/Dojo-NC-FR/DZP-10au/N_gga_10au_100Ry_2s2p1d.orb
/home/zxd/abacus/PSEUDO/ABACUS-orbitals/Dojo-NC-FR/DZP-10au/B_gga_10au_100Ry_2s2p1d.orb

LATTICE_CONSTANT
1.8897260000

LATTICE_VECTORS
       20.0763846187        0.0000000000        0.0000000000
      -10.0381923094       17.3866592300        0.0000000000
        0.0000000000        0.0000000000       30.0000000000

ATOMIC_POSITIONS
Cartesian

Ti #label
0.0000   #magnetism
1 #number of atoms
        6.2738601551        9.4177795451       16.3402358280 m 1 1 1 v        0.0000756086       -0.0000128463        0.0000483246

N #label
0.0000   #magnetism
64 #number of atoms
        4.8763603618       10.2246285393       15.4108269780 m 1 1 1 v        0.0000833351       -0.0001160479        0.0002114382
        0.0000100382        1.4488824736       15.0000000000 m 1 1 1 v       -0.0003803230        0.0001058736       -0.0000948975
        2.5088851842        1.4465029163       14.9975994570 m 1 1 1 v        0.0004055257       -0.0004224689        0.0000279349
        5.0195881757        1.4436610912       14.9902384500 m 1 1 1 v        0.0001276045        0.0002963848       -0.0002191689
        7.5290320827        1.4432435854       14.9907164490 m 1 1 1 v        0.0000179464       -0.0000465215        0.0000427101
       10.0402282334        1.4461020651       15.0051864720 m 1 1 1 v       -0.0002614328       -0.0000392827       -0.0000069773
       12.5502600392        1.4498412227       15.0086695110 m 1 1 1 v        0.0002018376        0.0001898411       -0.0003168680
       15.0588954401        1.4496019301       15.0058375410 m 1 1 1 v        0.0003943722        0.0001010099       -0.0000175601
       17.5662189556        1.4496873508       15.0054528630 m 1 1 1 v        0.0000502886       -0.0001234653        0.0001763734
       -1.2557767417        3.6223549651       15.0054527130 m 1 1 1 v       -0.0000123017        0.0003296591       -0.0000610898
        1.2526431533        3.6218030604       14.9859893340 m 1 1 1 v        0.0001331670       -0.0002371366       -0.0001940088
        3.7593963981        3.6086105554       14.9427605580 m 1 1 1 v       -0.0000319557       -0.0001456906       -0.0002249570
        6.2741859899        3.6072801144       14.9267024190 m 1 1 1 v        0.0000680536        0.0001784541       -0.0000761638
        8.7889109587        3.6083644386       14.9427516780 m 1 1 1 v       -0.0000562674       -0.0001172867       -0.0003512718
       11.2954866480        3.6215021200       14.9877204810 m 1 1 1 v        0.0000144766       -0.0001020860        0.0002463425
       13.8044125913        3.6227793631       15.0054496020 m 1 1 1 v       -0.0000120346        0.0004328605       -0.0000087179
       16.3116010309        3.6224866448       15.0037027110 m 1 1 1 v       -0.0001531148        0.0000031241        0.0001272502
       -2.5093645521        5.7938029454       15.0058375260 m 1 1 1 v        0.0000201171        0.0000560221       -0.0001913777
       -0.0016885083        5.7948032364       14.9922497760 m 1 1 1 v        0.0001510036        0.0002826302       -0.0002861162
        2.5069071173        5.7931597068       14.9654899920 m 1 1 1 v        0.0000567365       -0.0001527754       -0.0000476069
        5.0082577879        5.7640277855       14.9392432590 m 1 1 1 v        0.0001560644        0.0002152144       -0.0001149219
        7.5408997988        5.7640575550       14.9389979670 m 1 1 1 v       -0.0000902198        0.0000929649       -0.0002273082
       10.0421066573        5.7930789754       14.9651023530 m 1 1 1 v        0.0002206226        0.0001277747        0.0000038807
       12.5506134829        5.7938942602       14.9917927110 m 1 1 1 v        0.0000353907        0.0002016914       -0.0000381242
       15.0577536108        5.7936288945       15.0054496950 m 1 1 1 v        0.0001104926       -0.0000537123        0.0002240971
       -3.7638886578        7.9662260686       15.0086696310 m 1 1 1 v        0.0000093630        0.0001397850       -0.0000344330
       -1.2551823643        7.9673742262       14.9876711730 m 1 1 1 v       -0.0003369120        0.0004051547       -0.0002002095
        1.2520760004        7.9668198195       14.9649315900 m 1 1 1 v        0.0001144634       -0.0002636808        0.0001824312
        3.7645594409        7.9683395961       15.0956321490 m 1 1 1 v       -0.0001763922       -0.0000331352       -0.0003109972
        6.2744547956        7.8036739369       15.4104337440 m 1 1 1 v       -0.0002064745       -0.0000934980        0.0002621945
        8.7845479528        7.9682372235       15.0956927820 m 1 1 1 v       -0.0004545860        0.0000183060        0.0003009237
       11.2970686028        7.9667328028       14.9650996830 m 1 1 1 v        0.0002595822       -0.0001675237        0.0002467367
       13.8043969518        7.9670613672       14.9877189210 m 1 1 1 v       -0.0001809146       -0.0001261695       -0.0002114375
       -5.0156630759       10.1418484449       15.0051861330 m 1 1 1 v        0.0000544427       -0.0002697196       -0.0001545962
       -2.5118957947       10.1417450812       15.0052260180 m 1 1 1 v        0.0000497575       -0.0000450235        0.0000376721
       -0.0134696651       10.1441090235       14.9428025070 m 1 1 1 v       -0.0001789176        0.0001233097       -0.0001463748
        2.4775222196       10.1474017021       14.9389741020 m 1 1 1 v       -0.0000363347       -0.0001082246       -0.0001223321
        7.6720208911       10.2243231010       15.4104509550 m 1 1 1 v        0.0001212362        0.0001518537       -0.0000014054
       10.0716021417       10.1473552780       14.9389999560 m 1 1 1 v        0.0000018612        0.0001589585        0.0002353258
       12.5624910666       10.1443904770       14.9427488370 m 1 1 1 v       -0.0000348713       -0.0001374990       -0.0000475305
       -6.2687858359       12.3180379705       14.9907168480 m 1 1 1 v        0.0002161850        0.0001099606        0.0002838575
       -3.7637457772       12.3161517493       15.0158495250 m 1 1 1 v        0.0000279694       -0.0002163880       -0.0002362528
       -1.2585680608       12.3177188767       14.9904666270 m 1 1 1 v       -0.0001133223       -0.0003797763        0.0001340476
        1.2429078925       12.3224003042       14.9264546730 m 1 1 1 v        0.0003956382       -0.0002378001        0.0000421672
        3.7438201281       12.3406930222       14.9389737480 m 1 1 1 v       -0.0001675187        0.0000617284        0.0003000057
        6.2744651279       12.3156174659       15.0956370030 m 1 1 1 v       -0.0000025560        0.0002203217        0.0002496850
        8.8053050483       12.3407012931       14.9392433160 m 1 1 1 v        0.0000957615        0.0000375492       -0.0000041540
       11.3060664820       12.3227487694       14.9267006790 m 1 1 1 v        0.0003689335        0.0000170938       -0.0000848476
       -7.5238687247       14.4910720974       14.9902396530 m 1 1 1 v        0.0000247173        0.0001705534       -0.0002631925
       -5.0168534961       14.4902060784       15.0091707900 m 1 1 1 v        0.0000784325       -0.0002293438        0.0002103888
       -2.5108207826       14.4896182789       15.0087640830 m 1 1 1 v       -0.0002495317       -0.0001179963       -0.0002387994
       -0.0037760518       14.4910845828       14.9904647550 m 1 1 1 v       -0.0001692130        0.0000634194       -0.0002506599
        2.5011737746       14.4996019073       14.9428029150 m 1 1 1 v        0.0000855687        0.0000260081        0.0000787195
        5.0195358365       14.4922504418       14.9649313410 m 1 1 1 v       -0.0003865114        0.0000959434        0.0000501438
        7.5293975481       14.4923649833       14.9654880600 m 1 1 1 v       -0.0001597872       -0.0001244072        0.0004648289
       10.0475180399       14.4999549712       14.9427587430 m 1 1 1 v        0.0000881060        0.0000094155       -0.0001021586
       -8.7816839401       16.6639826696       14.9975993370 m 1 1 1 v        0.0001398117       -0.0003080651        0.0001945127
       -6.2729862573       16.6617049216       15.0139923990 m 1 1 1 v        0.0000798715       -0.0000739464        0.0003830043
       -3.7643467909       16.6596137898       15.0091696920 m 1 1 1 v       -0.0000814004       -0.0000112248       -0.0003950605
       -1.2550072008       16.6614164178       15.0158500890 m 1 1 1 v        0.0000707767       -0.0001458480        0.0000065130
        1.2540089888       16.6644843494       15.0052237140 m 1 1 1 v       -0.0001285798       -0.0001216102        0.0003151348
        3.7654258553       16.6633228006       14.9876714640 m 1 1 1 v        0.0002351953        0.0002436830       -0.0001184691
        6.2736754222       16.6640491875       14.9922491850 m 1 1 1 v       -0.0002533645        0.0002914020        0.0002955151
        8.7827149658       16.6642693703       14.9859901860 m 1 1 1 v        0.0001918890       -0.0001505699        0.0001113135

B #label
0.0000   #magnetism
63 #number of atoms
        1.2547640005        0.7244499301       15.0000000000 m 1 1 1 v       -0.0002225132        0.0001426159        0.0000358300
        3.7640065182        0.7226266903       15.0032337960 m 1 1 1 v        0.0001352085       -0.0002580034       -0.0000010227
        6.2742462320        0.7204064365       14.9989297320 m 1 1 1 v       -0.0002367827       -0.0000563989        0.0001101556
        8.7847509963        0.7222173805       15.0065482890 m 1 1 1 v        0.0000198417       -0.0001124451       -0.0002009674
       11.2957598013        0.7254918692       15.0098709990 m 1 1 1 v       -0.0001083511        0.0003626480        0.0003954784
       13.8042518527        0.7248392018       15.0029862600 m 1 1 1 v        0.0001754596       -0.0002526862        0.0001976502
       16.3127585208        0.7246968833       15.0026836080 m 1 1 1 v       -0.0002067853       -0.0001026825       -0.0002467433
       18.8212288607        0.7258163807       14.9995297980 m 1 1 1 v        0.0001773655       -0.0000893719       -0.0003109406
       -0.0013804844        2.8974220232       14.9995291020 m 1 1 1 v       -0.0001026115        0.0002532071        0.0001560805
        2.5046937722        2.8931083652       14.9760342900 m 1 1 1 v       -0.0002080400        0.0001049824       -0.0001418489
        5.0168240681        2.8887611823       14.9505724200 m 1 1 1 v        0.0002538205        0.0001130829       -0.0000893876
        7.5314486460        2.8884878605       14.9507406390 m 1 1 1 v        0.0002753980        0.0000758792       -0.0000793222
       10.0431867296        2.8923212746       14.9791066920 m 1 1 1 v        0.0000832905        0.0000089166        0.0005969612
       12.5501919632        2.8985082321       15.0028950360 m 1 1 1 v       -0.0002121305       -0.0000897973        0.0002349422
       15.0583016679        2.8982385616       15.0053886840 m 1 1 1 v       -0.0000478412       -0.0000037220        0.0002485101
       17.5654665961        2.8985669330       15.0053833860 m 1 1 1 v       -0.0000506442       -0.0003938295       -0.0002300447
       -1.2546480323        5.0703775589       15.0026833680 m 1 1 1 v        0.0000805820        0.0001188414       -0.0001669682
        1.2521525346        5.0709714785       14.9789290890 m 1 1 1 v        0.0005174261       -0.0000173065        0.0001540723
        3.7551239708        5.0535660539       14.9349551880 m 1 1 1 v        0.0000703883       -0.0001123221       -0.0001339582
        6.2744794554        5.0518399776       14.9286698460 m 1 1 1 v       -0.0000435207       -0.0002118708       -0.0002267224
        8.7940659981        5.0534050621       14.9345751870 m 1 1 1 v       -0.0001237783       -0.0000207114        0.0000935670
       11.2963462746        5.0706033769       14.9788797930 m 1 1 1 v        0.0001284784        0.0000749904        0.0000734677
       13.8037899764        5.0703716318       15.0021894840 m 1 1 1 v        0.0000421803        0.0000126571       -0.0004870297
       16.3121690973        5.0699993504       15.0053893020 m 1 1 1 v       -0.0002858035        0.0003893960        0.0001305898
       -2.5090236732        7.2427364454       15.0029865780 m 1 1 1 v       -0.0003678521       -0.0001523431        0.0000498425
       -0.0007027960        7.2423625018       14.9789485890 m 1 1 1 v       -0.0002431946       -0.0002875152       -0.0000760388
        2.5093436596        7.2437315204       14.9928049650 m 1 1 1 v       -0.0001874579       -0.0000024025        0.0001406864
        5.0084862271        7.1956859113       15.1340090310 m 1 1 1 v        0.0000827555       -0.0003279620        0.0001461387
        7.5406192584        7.1959010799       15.1339973430 m 1 1 1 v        0.0002252619        0.0000137862       -0.0002907487
       10.0397543524        7.2435411713       14.9927966880 m 1 1 1 v        0.0001546271        0.0000885610        0.0000035105
       12.5498681030        7.2417652092       14.9788782600 m 1 1 1 v       -0.0003693117        0.0003799406       -0.0004728506
       15.0578804202        7.2419512099       15.0028949010 m 1 1 1 v        0.0002154408       -0.0000587439       -0.0002726100
       -3.7638326457        9.4148314076       15.0098722080 m 1 1 1 v       -0.0002170235        0.0003261207        0.0001664286
       -1.2608453552        9.4160844380       14.9791210050 m 1 1 1 v        0.0001139017        0.0001754445       -0.0000937204
        1.2356978826        9.4173633137       14.9344965510 m 1 1 1 v       -0.0001871967        0.0001757430        0.0000755340
        3.7173646499        9.4317602361       15.1340936010 m 1 1 1 v       -0.0001811506        0.0000082139       -0.0003447780
        8.8314493696        9.4316789326       15.1340046720 m 1 1 1 v       -0.0000722632       -0.0001587958       -0.0000697131
       11.3136272576        9.4174064953       14.9345734500 m 1 1 1 v       -0.0003319611        0.0002531958        0.0000405765
       13.8097395196        9.4161761526       14.9791047060 m 1 1 1 v       -0.0001103724       -0.0000262201        0.0003163145
       -5.0165005813       11.5910644555       15.0065478210 m 1 1 1 v        0.0003670645       -0.0000986551       -0.0002318723
       -2.5109690227       11.5909657114       15.0064705530 m 1 1 1 v        0.0000081291        0.0005820035        0.0001959250
       -0.0081861890       11.5931081408       14.9506258410 m 1 1 1 v        0.0002225124       -0.0003613090       -0.0000912299
        2.4939759822       11.6000955001       14.9285375790 m 1 1 1 v        0.0001062223        0.0000035338       -0.0003028407
        4.9835066443       11.6247807642       15.1340950920 m 1 1 1 v        0.0004889051        0.0001485689        0.0003621725
        7.5655689103       11.6246753036       15.1340170110 m 1 1 1 v        0.0002635349       -0.0000903143        0.0001250737
       10.0551894403       11.6002149430       14.9286697020 m 1 1 1 v       -0.0000655573       -0.0003211010        0.0001734269
       12.5571899203       11.5933222957       14.9507389920 m 1 1 1 v       -0.0001640503       -0.0000489451        0.0001765376
       -6.2701846861       13.7661328981       14.9989315410 m 1 1 1 v       -0.0001604020        0.0002620320        0.0000041049
       -3.7639639001       13.7653379139       15.0108791580 m 1 1 1 v       -0.0001020504       -0.0001380499        0.0001694545
       -1.2570624344       13.7657603193       14.9985913530 m 1 1 1 v        0.0000477708        0.0002649943       -0.0001745346
        1.2489456835       13.7705262095       14.9506250550 m 1 1 1 v       -0.0002727186       -0.0002539798        0.0000871523
        3.7551396846       13.7811646838       14.9344960920 m 1 1 1 v       -0.0002041449        0.0000961282        0.0001881880
        6.2743835525       13.7649685674       14.9928061230 m 1 1 1 v        0.0001163879       -0.0002643700       -0.0001113447
        8.7940149057       13.7811776803       14.9349528120 m 1 1 1 v       -0.0004503511       -0.0001221127       -0.0003179768
       11.2996401388       13.7709161523       14.9505714060 m 1 1 1 v       -0.0001707319        0.0000494722       -0.0002855926
       -7.5272283390       15.9389541983       15.0032341590 m 1 1 1 v       -0.0000348910       -0.0000437211       -0.0003492793
       -5.0182631193       15.9372910740       15.0106515420 m 1 1 1 v       -0.0003701555       -0.0001741934        0.0002253247
       -2.5101477721       15.9370126458       15.0108787920 m 1 1 1 v       -0.0003292675        0.0002029444        0.0000063577
       -0.0005905379       15.9390720677       15.0064686450 m 1 1 1 v        0.0001391119        0.0001550705        0.0002022587
        2.5079747934       15.9438720531       14.9791206780 m 1 1 1 v        0.0002096290       -0.0002158853        0.0000096449
        5.0205441107       15.9394160836       14.9789492880 m 1 1 1 v        0.0002281036        0.0003083704        0.0003264563
        7.5274528792       15.9401066139       14.9789295300 m 1 1 1 v        0.0000610927       -0.0005322411       -0.0002098193
       10.0398085767       15.9443105621       14.9760343770 m 1 1 1 v        0.0002646623        0.0002536858        0.0001190677
