ATOMIC_SPECIES
Ti  47.8670 /home/zxd/abacus/PSEUDO/ABACUS-orbitals/Dojo-NC-FR/Pseudopotential/Ti.upf upf201
N  14.0070 /home/zxd/abacus/PSEUDO/ABACUS-orbitals/Dojo-NC-FR/Pseudopotential/N.upf upf201
B  10.8100 /home/zxd/abacus/PSEUDO/ABACUS-orbitals/Dojo-NC-FR/Pseudopotential/B.upf upf201

NUMERICAL_ORBITAL
/home/zxd/abacus/PSEUDO/ABACUS-orbitals/Dojo-NC-FR/DZP-10au/Ti_gga_10au_100Ry_4s2p2d1f.orb
/home/zxd/abacus/PSEUDO/ABACUS-orbitals/Dojo-NC-FR/DZP-10au/N_gga_10au_100Ry_2s2p1d.orb
/home/zxd/abacus/PSEUDO/ABACUS-orbitals/Dojo-NC-FR/DZP-10au/B_gga_10au_100Ry_2s2p1d.orb

LATTICE_CONSTANT
1.8897260000

LATTICE_VECTORS
       20.0763846187        0.0000000000        0.0000000000
      -10.0381923094       17.3866592300        0.0000000000
        0.0000000000        0.0000000000       30.0000000000

ATOMIC_POSITIONS
Cartesian

Ti #label
0.0000   #magnetism
1 #number of atoms
        6.2820708662        9.4161598705       16.3456701360 m 1 1 1 v        0.0000740670       -0.0000183348        0.0000514721

N #label
0.0000   #magnetism
64 #number of atoms
        4.8848731807       10.2136262830       15.4329683720 m 1 1 1 v        0.0000624139       -0.0000692542        0.0001819655
       -0.0360146829        1.4611494533       14.9897582473 m 1 1 1 v       -0.0002268870        0.0001225465       -0.0000915094
        2.5459942554        1.4051772227       15.0003382836 m 1 1 1 v        0.0002110799       -0.0002885432        0.0000190688
        5.0317247663        1.4717354250       14.9669174510 m 1 1 1 v        0.0000813351        0.0001807061       -0.0001993305
        7.5304282831        1.4381111029       14.9951796582 m 1 1 1 v        0.0000000213       -0.0000456517        0.0000379448
       10.0152774671        1.4433372501       15.0056134839 m 1 1 1 v       -0.0001635101        0.0000026166        0.0000269315
       12.5702416134        1.4670809026       14.9760745459 m 1 1 1 v        0.0001456006        0.0000960587       -0.0002588279
       15.0950348917        1.4593920924       15.0043265525 m 1 1 1 v        0.0002069344        0.0000706775       -0.0000060470
       17.5717907908        1.4344782801       15.0228891012 m 1 1 1 v        0.0000489412       -0.0001664184        0.0001244064
       -1.2577685277        3.6540317702       14.9987208965 m 1 1 1 v       -0.0000309568        0.0002134119       -0.0000623483
        1.2646253371        3.5993614187       14.9657227684 m 1 1 1 v        0.0000630039       -0.0001402942       -0.0001665471
        3.7568436891        3.5948415246       14.9181454667 m 1 1 1 v       -0.0000050136       -0.0000901324       -0.0002234544
        6.2832135656        3.6239286132       14.9182086858 m 1 1 1 v        0.0001091943        0.0000985468       -0.0000794643
        8.7858355519        3.5986225918       14.9059735481 m 1 1 1 v        0.0000265117       -0.0000362400       -0.0003035379
       11.2959451484        3.6119220013       15.0156120964 m 1 1 1 v       -0.0000150408       -0.0000559246        0.0002731326
       13.8013550927        3.6629408316       15.0045665878 m 1 1 1 v       -0.0000551277        0.0002415887       -0.0000063571
       16.2972923097        3.6235564287       15.0174926799 m 1 1 1 v       -0.0000887576        0.0000227411        0.0001226222
       -2.5084046832        5.7995732149       14.9854420209 m 1 1 1 v       -0.0000125300        0.0000460979       -0.0001763602
        0.0151979157        5.8185516014       14.9617282987 m 1 1 1 v        0.0001568756        0.0000913798       -0.0002638171
        2.5155621915        5.7775009003       14.9607177840 m 1 1 1 v        0.0001223215       -0.0001185874       -0.0000330359
        5.0230907623        5.7808549561       14.9261696438 m 1 1 1 v        0.0000960192        0.0000343865       -0.0001292153
        7.5326183952        5.7723564968       14.9140173570 m 1 1 1 v       -0.0000476048        0.0000435350       -0.0002306655
       10.0624008943        5.8053623816       14.9655172528 m 1 1 1 v        0.0001194443        0.0000848263        0.0000062164
       12.5537263845        5.8152528772       14.9859855968 m 1 1 1 v        0.0000171440        0.0001800698       -0.0000833658
       15.0671815890        5.7908907815       15.0285031698 m 1 1 1 v        0.0000348774        0.0000301125        0.0001830988
       -3.7651224394        7.9810367193       15.0052008368 m 1 1 1 v       -0.0000509054        0.0001250364       -0.0000261384
       -1.2892645361        8.0050882142       14.9661738794 m 1 1 1 v       -0.0002592323        0.0002265345       -0.0001883980
        1.2593486361        7.9426602365       14.9846345529 m 1 1 1 v       -0.0000262309       -0.0001397659        0.0001777387
        3.7472002544        7.9637731677       15.0628371842 m 1 1 1 v       -0.0001212625       -0.0000554468       -0.0002804722
        6.2556734522        7.7933849871       15.4387870825 m 1 1 1 v       -0.0001069191       -0.0000974608        0.0002509104
        8.7437021194        7.9702299361       15.1271215765 m 1 1 1 v       -0.0002179552        0.0000207218        0.0002565155
       11.3168910617        7.9561289967       14.9906552114 m 1 1 1 v        0.0000251589        0.0000367076        0.0002103417
       13.7873191827        7.9550427275       14.9643623954 m 1 1 1 v       -0.0001077383       -0.0000774916       -0.0002170918
       -5.0128256410       10.1169066175       14.9890554012 m 1 1 1 v       -0.0000326624       -0.0001451785       -0.0001325807
       -2.5083176413       10.1416756168       15.0098360344 m 1 1 1 v        0.0000012269        0.0000827482        0.0000519467
       -0.0288319350       10.1547726167       14.9267025949 m 1 1 1 v       -0.0000690383        0.0000450624       -0.0001472808
        2.4724066927       10.1374562827       14.9249245594 m 1 1 1 v       -0.0000645406       -0.0000585150       -0.0001409311
        7.6849086112       10.2388523440       15.4106131847 m 1 1 1 v        0.0001107404        0.0000960664        0.0000061049
       10.0692424786       10.1606709033       14.9644832163 m 1 1 1 v       -0.0000667321        0.0000487380        0.0002275835
       12.5564254965       10.1310529118       14.9382151456 m 1 1 1 v       -0.0000896335       -0.0000885891       -0.0000272628
       -6.2469791396       12.3281091843       15.0209042010 m 1 1 1 v        0.0001628831        0.0000576011        0.0002605770
       -3.7607992828       12.2968395663       14.9906378320 m 1 1 1 v        0.0000250053       -0.0001005035       -0.0002185219
       -1.2654468246       12.2842254523       15.0047069608 m 1 1 1 v        0.0000386235       -0.0001634019        0.0001230863
        1.2800052602       12.2982335797       14.9304233602 m 1 1 1 v        0.0002267314       -0.0001856033        0.0000254866
        3.7307324414       12.3464605262       14.9716857187 m 1 1 1 v       -0.0000267356        0.0000348344        0.0002962064
        6.2783024278       12.3363106551       15.1232053407 m 1 1 1 v        0.0001049141        0.0001228223        0.0002529065
        8.8151511071       12.3433771798       14.9383911029 m 1 1 1 v        0.0000796474       -0.0000006251       -0.0000154819
       11.3389664121       12.3235654886       14.9175491538 m 1 1 1 v        0.0001712295       -0.0000076806       -0.0000798704
       -7.5230285702       14.5084602684       14.9607028172 m 1 1 1 v       -0.0000257007        0.0001296487       -0.0002825165
       -5.0109893205       14.4679774082       15.0324729501 m 1 1 1 v        0.0000064063       -0.0001500941        0.0002173946
       -2.5360311518       14.4790637650       14.9836334767 m 1 1 1 v       -0.0001938149       -0.0000549785       -0.0002121250
       -0.0196692070       14.4976297339       14.9635363965 m 1 1 1 v       -0.0000971235        0.0000484917       -0.0002353831
        2.5060557363       14.5009460383       14.9513516617 m 1 1 1 v       -0.0000368474       -0.0000121651        0.0000783778
        4.9835882593       14.5025680653       14.9703837804 m 1 1 1 v       -0.0002147056        0.0000918010        0.0000516152
        7.5124899356       14.4776957188       15.0138115908 m 1 1 1 v       -0.0001465532       -0.0001511394        0.0003973555
       10.0521856565       14.5008195667       14.9308022429 m 1 1 1 v       -0.0000385995        0.0000062560       -0.0001222499
       -8.7673636121       16.6376622109       15.0180971741 m 1 1 1 v        0.0001125933       -0.0001123862        0.0001730783
       -6.2660862678       16.6528145630       15.0548212538 m 1 1 1 v        0.0000302588       -0.0000948862        0.0003536367
       -3.7766659297       16.6588415571       14.9675831053 m 1 1 1 v       -0.0001717774       -0.0000013821       -0.0003503327
       -1.2496195363       16.6469588342       15.0166207790 m 1 1 1 v        0.0000071273       -0.0001046861        0.0000081953
        1.2446548079       16.6553857816       15.0398411271 m 1 1 1 v       -0.0000014383       -0.0000115774        0.0003193837
        3.7883245253       16.6860534414       14.9756059247 m 1 1 1 v        0.0001594990        0.0001333759       -0.0000931628
        6.2531362999       16.6897965547       15.0232743218 m 1 1 1 v       -0.0000629754        0.0001275214        0.0002600279
        8.8013058198       16.6478132888       14.9968901549 m 1 1 1 v        0.0001257785       -0.0001496152        0.0000763930

B #label
0.0000   #magnetism
63 #number of atoms
        1.2347542046        0.7367133919       15.0042098211 m 1 1 1 v       -0.0001061673        0.0000549238        0.0000430906
        3.7811804548        0.6978828626       15.0032386960 m 1 1 1 v        0.0001964689       -0.0001627188        0.0000040619
        6.2524150421        0.7163809868       15.0091291444 m 1 1 1 v       -0.0001265444        0.0000001322        0.0000600536
        8.7842554884        0.7090707721       14.9856075817 m 1 1 1 v       -0.0000514729       -0.0001323529       -0.0001695765
       11.2857063777        0.7590658047       15.0508463034 m 1 1 1 v       -0.0000547653        0.0002018268        0.0003322008
       13.8242826974        0.7053311157       15.0225765750 m 1 1 1 v        0.0001919658       -0.0000338461        0.0001417949
       16.2959900900        0.7176703157       14.9778325200 m 1 1 1 v       -0.0000462031        0.0000043734       -0.0001864982
       18.8348153669        0.7149947785       14.9674830610 m 1 1 1 v        0.0000238014       -0.0001183016       -0.0002546151
       -0.0135329778        2.9235958191       15.0149256625 m 1 1 1 v       -0.0001245209        0.0002088156        0.0001102989
        2.4886124999        2.8964816859       14.9603957157 m 1 1 1 v       -0.0000274507       -0.0001060088       -0.0001439896
        5.0412438292        2.9010187184       14.9403544526 m 1 1 1 v        0.0001605227        0.0001101360       -0.0001019114
        7.5564147065        2.8935513094       14.9418132325 m 1 1 1 v        0.0001377638       -0.0000103377       -0.0000863084
       10.0499743108        2.8925406754       15.0407566593 m 1 1 1 v        0.0000175656       -0.0000079481        0.0004951394
       12.5332007216        2.8930181744       15.0270252287 m 1 1 1 v       -0.0000473150        0.0000254652        0.0001919586
       15.0530768796        2.9006915949       15.0315028736 m 1 1 1 v       -0.0000463565        0.0000739914        0.0002171359
       17.5597255721        2.8629045198       14.9820345634 m 1 1 1 v       -0.0000580984       -0.0001917158       -0.0001798706
       -1.2467162397        5.0851384933       14.9841013537 m 1 1 1 v        0.0000607315        0.0001647150       -0.0001748678
        1.3010385227        5.0683711176       14.9939705447 m 1 1 1 v        0.0003060588       -0.0000381782        0.0001036259
        3.7636769711        5.0424285385       14.9203508818 m 1 1 1 v        0.0000956776       -0.0000823793       -0.0001345481
        6.2706573207        5.0348904412       14.9045689828 m 1 1 1 v       -0.0000167888       -0.0000451301       -0.0002095666
        8.7833550385        5.0524797550       14.9433461415 m 1 1 1 v       -0.0000494649        0.0000146631        0.0000503001
       11.3113343349        5.0780078954       14.9869053516 m 1 1 1 v        0.0001491256        0.0000553216        0.0000736302
       13.8075486240        5.0756721419       14.9518557408 m 1 1 1 v        0.0000171888        0.0001191758       -0.0004038735
       16.2876247405        5.1045491862       15.0194218622 m 1 1 1 v       -0.0001019268        0.0001691583        0.0001220454
       -2.5441108308        7.2316733156       15.0072441624 m 1 1 1 v       -0.0002278508       -0.0000003937        0.0000172170
       -0.0268395148        7.2206602885       14.9704130598 m 1 1 1 v       -0.0002249268       -0.0000267378       -0.0000811668
        2.4920642691        7.2421773431       15.0074292826 m 1 1 1 v       -0.0000998312       -0.0000383152        0.0001155928
        5.0136992752        7.1664167614       15.1496193209 m 1 1 1 v       -0.0000172253       -0.0001445547        0.0001321746
        7.5559409853        7.1966062712       15.1054498333 m 1 1 1 v       -0.0000252541       -0.0000053497       -0.0002045227
       10.0537285257        7.2524337365       14.9947247945 m 1 1 1 v        0.0000753995        0.0000657102        0.0000432732
       12.5191147045        7.2756598666       14.9295463359 m 1 1 1 v       -0.0001100168        0.0001709804       -0.0004070116
       15.0770864413        7.2378579747       14.9743651347 m 1 1 1 v        0.0000957265        0.0000033814       -0.0002355841
       -3.7805256755        9.4454177440       15.0267223695 m 1 1 1 v       -0.0000274393        0.0001829263        0.0001299318
       -1.2547341649        9.4342807908       14.9689240692 m 1 1 1 v       -0.0000521356        0.0001468751       -0.0000912690
        1.2170125667        9.4306994763       14.9423951145 m 1 1 1 v       -0.0001345120        0.0000203989        0.0000631916
        3.7005413772        9.4310556380       15.0986035322 m 1 1 1 v       -0.0000941302       -0.0000354027       -0.0002854554
        8.8229081554        9.4175790866       15.1282896098 m 1 1 1 v       -0.0000923489       -0.0000714358       -0.0000199902
       11.2845865715        9.4398605606       14.9398689209 m 1 1 1 v       -0.0001386541        0.0001147514        0.0000625523
       13.7994328040        9.4105308170       15.0111206851 m 1 1 1 v       -0.0000679735       -0.0000984283        0.0002442077
       -4.9828745244       11.5794528644       14.9821367210 m 1 1 1 v        0.0001871218       -0.0001190971       -0.0002028179
       -2.5099010044       11.6411269236       15.0264873755 m 1 1 1 v        0.0000145075        0.0002223194        0.0001583791
        0.0131054268       11.5599764475       14.9412964689 m 1 1 1 v        0.0001410657       -0.0001853566       -0.0000731385
        2.5080108539       11.5977826596       14.8977154945 m 1 1 1 v        0.0001683250       -0.0000677519       -0.0002406295
        5.0271330836       11.6391880938       15.1732914943 m 1 1 1 v        0.0002285258        0.0000924505        0.0003478204
        7.5919232798       11.6179721660       15.1477424824 m 1 1 1 v        0.0001944127       -0.0000072603        0.0001232055
       10.0523727312       11.5739639891       14.9468807157 m 1 1 1 v        0.0000485014       -0.0000815065        0.0001496913
       12.5474412546       11.5887667499       14.9695634176 m 1 1 1 v        0.0000540121       -0.0000311061        0.0001624609
       -6.2848913260       13.7893151683       14.9997564430 m 1 1 1 v       -0.0000832596        0.0001135033        0.0000164140
       -3.7743056602       13.7490076437       15.0281156854 m 1 1 1 v       -0.0000799543       -0.0001646527        0.0001315677
       -1.2556736736       13.7881247896       14.9795618766 m 1 1 1 v       -0.0000539897        0.0000902241       -0.0001706238
        1.2231872296       13.7457180027       14.9595814618 m 1 1 1 v       -0.0001633858       -0.0001730870        0.0000706420
        3.7347613262       13.7897796994       14.9550198336 m 1 1 1 v       -0.0001493682        0.0000419554        0.0001846581
        6.2787478732       13.7426163552       14.9828545752 m 1 1 1 v       -0.0001035542       -0.0000867273       -0.0000524691
        8.7541744618       13.7707913454       14.9026642630 m 1 1 1 v       -0.0001985147       -0.0000478999       -0.0002501662
       11.2849097453       13.7757736118       14.9199687102 m 1 1 1 v       -0.0000674746        0.0000344669       -0.0002681313
       -7.5287740978       15.9348613250       14.9674354022 m 1 1 1 v        0.0000254850       -0.0000230081       -0.0002798202
       -5.0518909040       15.9178340655       15.0344191141 m 1 1 1 v       -0.0001815509       -0.0001853465        0.0001990501
       -2.5413656026       15.9546511527       15.0104124816 m 1 1 1 v       -0.0002027360        0.0000787014       -0.0000272830
        0.0117843459       15.9530880626       15.0274522593 m 1 1 1 v        0.0000625010        0.0000731526        0.0001720159
        2.5281089743       15.9255332498       14.9805302346 m 1 1 1 v        0.0001357113       -0.0000750405        0.0000206160
        5.0407553270       15.9682243226       15.0131783298 m 1 1 1 v        0.0001004710        0.0001718002        0.0002852400
        7.5325717616       15.8927973405       14.9588856727 m 1 1 1 v        0.0000206897       -0.0002406573       -0.0001281471
       10.0665289419       15.9652646435       14.9884975352 m 1 1 1 v        0.0001964396        0.0000682394        0.0001040165
