ATOMIC_SPECIES
Ti  47.8670 /home/zxd/abacus/PSEUDO/ABACUS-orbitals/Dojo-NC-FR/Pseudopotential/Ti.upf upf201
N  14.0070 /home/zxd/abacus/PSEUDO/ABACUS-orbitals/Dojo-NC-FR/Pseudopotential/N.upf upf201
B  10.8100 /home/zxd/abacus/PSEUDO/ABACUS-orbitals/Dojo-NC-FR/Pseudopotential/B.upf upf201

NUMERICAL_ORBITAL
/home/zxd/abacus/PSEUDO/ABACUS-orbitals/Dojo-NC-FR/DZP-10au/Ti_gga_10au_100Ry_4s2p2d1f.orb
/home/zxd/abacus/PSEUDO/ABACUS-orbitals/Dojo-NC-FR/DZP-10au/N_gga_10au_100Ry_2s2p1d.orb
/home/zxd/abacus/PSEUDO/ABACUS-orbitals/Dojo-NC-FR/DZP-10au/B_gga_10au_100Ry_2s2p1d.orb

LATTICE_CONSTANT
1.8897260000

LATTICE_VECTORS
       20.0763846187        0.0000000000        0.0000000000
      -10.0381923094       17.3866592300        0.0000000000
        0.0000000000        0.0000000000       30.0000000000

ATOMIC_POSITIONS
Cartesian

Ti #label
0.0000   #magnetism
1 #number of atoms
        6.2901823452        9.4137647009       16.3515476463 m 1 1 1 v        0.0000757384       -0.0000237310        0.0000561031

N #label
0.0000   #magnetism
64 #number of atoms
        4.8878994443       10.2106065456       15.4489437788 m 1 1 1 v       -0.0000177031        0.0000083247        0.0001052135
       -0.0444161875        1.4745417041       14.9802203561 m 1 1 1 v        0.0000698571        0.0001042590       -0.0000815448
        2.5498047674        1.3880521981       15.0012592841 m 1 1 1 v       -0.0001264807       -0.0000236842       -0.0000040700
        5.0363414986        1.4792499242       14.9478940739 m 1 1 1 v        0.0000053989       -0.0000435850       -0.0001440046
        7.5281941424        1.4331463029       14.9987336812 m 1 1 1 v       -0.0000410898       -0.0000475777        0.0000248938
       10.0077758824        1.4468880546       15.0129388150 m 1 1 1 v        0.0000260230        0.0000488738        0.0001125877
       12.5799750655        1.4689249693       14.9553271924 m 1 1 1 v        0.0000294822       -0.0000500855       -0.0001084769
       15.0988336344        1.4657598361       15.0051599395 m 1 1 1 v       -0.0001251161        0.0000574187        0.0000233243
       17.5760086575        1.4152166502       15.0298546732 m 1 1 1 v        0.0000227717       -0.0001526859       -0.0000063801
       -1.2642011868        3.6657341465       14.9917368044 m 1 1 1 v       -0.0000961327        0.0000053448       -0.0000659508
        1.2651107635        3.5940017274       14.9511181429 m 1 1 1 v       -0.0000403350        0.0000349486       -0.0000952499
        3.7597119133        3.5901873895       14.8941586172 m 1 1 1 v        0.0000605023        0.0000004533       -0.0002140844
        6.2982817728        3.6260663257       14.9092326140 m 1 1 1 v        0.0001547780       -0.0000555335       -0.0000855258
        8.7962754668        3.6024327331       14.8792150992 m 1 1 1 v        0.0001486705        0.0000988040       -0.0001752678
       11.2924228871        3.6116935065       15.0488066398 m 1 1 1 v       -0.0000373066        0.0000571838        0.0003369101
       13.7926039374        3.6710762565       15.0042449924 m 1 1 1 v       -0.0000907319       -0.0000731272        0.0000002546
       16.2943890753        3.6278056720       15.0301799519 m 1 1 1 v        0.0000375352        0.0000523073        0.0001083707
       -2.5128444844        5.8047679628       14.9681058367 m 1 1 1 v       -0.0000644154        0.0000608947       -0.0001373417
        0.0309296638        5.8116530304       14.9357703130 m 1 1 1 v        0.0001153475       -0.0001829003       -0.0002066576
        2.5347035910        5.7695867508       14.9592862710 m 1 1 1 v        0.0002110881       -0.0000212973        0.0000104040
        5.0270844131        5.7678802075       14.9106999661 m 1 1 1 v       -0.0000246135       -0.0002420318       -0.0001494914
        7.5318237351        5.7724958523       14.8884857609 m 1 1 1 v        0.0000325483       -0.0000347016       -0.0002353054
       10.0658111599        5.8100575141       14.9669306428 m 1 1 1 v       -0.0000500863       -0.0000022784        0.0000217372
       12.5545878599        5.8313769561       14.9712135926 m 1 1 1 v        0.0000039999        0.0001045345       -0.0001939974
       15.0635154736        5.8024467850       15.0432096474 m 1 1 1 v       -0.0000862994        0.0001718048        0.0000773764
       -3.7759874737        7.9928272550       15.0033740763 m 1 1 1 v       -0.0001363710        0.0000890290       -0.0000060002
       -1.3089620877        8.0118077438       14.9471568832 m 1 1 1 v       -0.0000984014       -0.0000926664       -0.0001569839
        1.2426983891        7.9400246601       15.0037829362 m 1 1 1 v       -0.0002637538        0.0000878268        0.0001719516
        3.7402999795        7.9563448444       15.0357047098 m 1 1 1 v       -0.0000021750       -0.0000741257       -0.0002096055
        6.2525317069        7.7820694654       15.4644442574 m 1 1 1 v        0.0000336271       -0.0001100246        0.0002147361
        8.7426027646        7.9720803467       15.1495487808 m 1 1 1 v        0.0001752042        0.0000002819        0.0001475793
       11.2987985468        7.9779197853       15.0095878633 m 1 1 1 v       -0.0003056832        0.0003227154        0.0001281588
       13.7841218369        7.9519089020       14.9400725743 m 1 1 1 v        0.0000558861        0.0000203811       -0.0002272189
       -5.0242057705       10.1134806047       14.9774095926 m 1 1 1 v       -0.0001538711        0.0000714081       -0.0000753332
       -2.5130365052       10.1620615982       15.0173778825 m 1 1 1 v       -0.0000851670        0.0002711591        0.0000879060
       -0.0269426447       10.1504852628       14.9108385274 m 1 1 1 v        0.0000848732       -0.0001244845       -0.0001405002
        2.4640307042       10.1348426479       14.9074110260 m 1 1 1 v       -0.0000728977       -0.0000032494       -0.0001797326
        7.6939813222       10.2435540002       15.4125040056 m 1 1 1 v        0.0000358256       -0.0000070235        0.0000336229
       10.0566297913       10.1557450985       14.9881593337 m 1 1 1 v       -0.0001426279       -0.0001201880        0.0002017122
       12.5444919629       10.1271543104       14.9382078955 m 1 1 1 v       -0.0000986293        0.0000202135        0.0000331205
       -6.2354683928       12.3284955805       15.0463953683 m 1 1 1 v        0.0000439047       -0.0000549945        0.0002000746
       -3.7582801471       12.2962082813       14.9689815177 m 1 1 1 v        0.0000220547        0.0000686882       -0.0001738838
       -1.2473397528       12.2878227271       15.0168165325 m 1 1 1 v        0.0002622829        0.0002160707        0.0000963020
        1.2872621047       12.2843463254       14.9312571399 m 1 1 1 v       -0.0000843899       -0.0000629440       -0.0000132707
        3.7418949116       12.3473128580       15.0031700589 m 1 1 1 v        0.0002226452       -0.0000215512        0.0002750447
        6.2977920910       12.3385307284       15.1506601037 m 1 1 1 v        0.0002196561       -0.0000809143        0.0002468754
        8.8228802180       12.3404997948       14.9352627298 m 1 1 1 v        0.0000672359       -0.0000400556       -0.0000435015
       11.3398272278       12.3212392271       14.9097497660 m 1 1 1 v       -0.0001277893       -0.0000299896       -0.0000599685
       -7.5300117532       14.5159170744       14.9277196939 m 1 1 1 v       -0.0000897692       -0.0000081323       -0.0003211935
       -5.0172882911       14.4594185318       15.0569329527 m 1 1 1 v       -0.0001146408       -0.0000151744        0.0002298410
       -2.5509948384       14.4787567105       14.9636969459 m 1 1 1 v       -0.0000760663        0.0000405197       -0.0001478753
       -0.0231817480       14.5000674855       14.9400938800 m 1 1 1 v        0.0000244994       -0.0000122833       -0.0001883636
        2.4900858983       14.4964600261       14.9600631957 m 1 1 1 v       -0.0002406421       -0.0000638448        0.0000813571
        4.9768846860       14.5116826196       14.9766088301 m 1 1 1 v        0.0000774146        0.0000672125        0.0000642971
        7.4984172321       14.4609289395       15.0490075334 m 1 1 1 v       -0.0001018634       -0.0001302947        0.0002323354
       10.0380438834       14.5009016425       14.9152217813 m 1 1 1 v       -0.0001938970       -0.0000103063       -0.0001644412
       -8.7585938386       16.6444559903       15.0343343667 m 1 1 1 v        0.0000400843        0.0002220559        0.0001192510
       -6.2669141689       16.6408156765       15.0897147610 m 1 1 1 v       -0.0000315446       -0.0001179533        0.0002777561
       -3.8022245299       16.6590696803       14.9349950591 m 1 1 1 v       -0.0002671823        0.0000005414       -0.0002360531
       -1.2558101198       16.6398150753       15.0176262870 m 1 1 1 v       -0.0001211009       -0.0000281564        0.0000094193
        1.2564712220       16.6645143657       15.0751316987 m 1 1 1 v        0.0001998962        0.0001691065        0.0003241914
        3.7974708223       16.6892328618       14.9687218385 m 1 1 1 v        0.0000040923       -0.0000627391       -0.0000271236
        6.2646949733       16.6877922434       15.0473529079 m 1 1 1 v        0.0002597902       -0.0001525518        0.0001739651
        8.8078941745       16.6324829291       15.0010023352 m 1 1 1 v       -0.0000059326       -0.0001224643       -0.0000059577

B #label
0.0000   #magnetism
63 #number of atoms
        1.2344115630        0.7348178054       15.0096410155 m 1 1 1 v        0.0000886372       -0.0000793004        0.0000559795
        3.8060257015        0.6901926855       15.0045962123 m 1 1 1 v        0.0002276750        0.0000193976        0.0000231445
        6.2499166772        0.7213339784       15.0095295024 m 1 1 1 v        0.0000761347        0.0000803935       -0.0000613265
        8.7727503514        0.6945782586       14.9716595590 m 1 1 1 v       -0.0001411656       -0.0001141511       -0.0000755485
       11.2864392697        0.7651282470       15.0791684319 m 1 1 1 v        0.0000726466       -0.0000862153        0.0001746987
       13.8440938863        0.7226604073       15.0310971758 m 1 1 1 v        0.0001475165        0.0003225088        0.0000038989
       16.3071471883        0.7262383480       14.9651728375 m 1 1 1 v        0.0002326822        0.0001263255       -0.0000325217
       18.8247726035        0.6994619846       14.9470248073 m 1 1 1 v       -0.0001717328       -0.0001569487       -0.0001083457
       -0.0273587382        2.9398651809       15.0211811650 m 1 1 1 v       -0.0001107974        0.0000728846       -0.0000052640
        2.5024863770        2.8662812875       14.9446399850 m 1 1 1 v        0.0002531076       -0.0004151631       -0.0001430361
        5.0486497269        2.9122290752       14.9275710327 m 1 1 1 v       -0.0000225700        0.0000879431       -0.0001343016
        7.5584357515        2.8849352762       14.9315209501 m 1 1 1 v       -0.0000843157       -0.0001295922       -0.0001031594
       10.0447296173        2.8908856008       15.0818460987 m 1 1 1 v       -0.0001087240       -0.0000157833        0.0002370685
       12.5430258286        2.9056600356       15.0427140760 m 1 1 1 v        0.0002042846        0.0001837241        0.0000880305
       15.0480273106        2.9156605163       15.0508767753 m 1 1 1 v       -0.0000484753        0.0001853551        0.0001289626
       17.5535282045        2.8624677724       14.9687881672 m 1 1 1 v       -0.0000426654        0.0001725473       -0.0000523879
       -1.2416682970        5.1056926557       14.9642148861 m 1 1 1 v        0.0000312219        0.0001884397       -0.0001883259
        1.3121875801        5.0610434053       14.9987918027 m 1 1 1 v       -0.0000939441       -0.0000977667       -0.0000255217
        3.7762966385        5.0358429250       14.9053128885 m 1 1 1 v        0.0001265798       -0.0000437014       -0.0001406782
        6.2728673044        5.0455396474       14.8833486606 m 1 1 1 v        0.0000674138        0.0002140684       -0.0001774522
        8.7858461289        5.0574199654       14.9429095674 m 1 1 1 v        0.0000983516        0.0000728709       -0.0000675456
       11.3261864092        5.0819171591       14.9950196886 m 1 1 1 v        0.0000917249        0.0000130599        0.0000747788
       13.8066469133        5.0980262058       14.9185721910 m 1 1 1 v       -0.0000323038        0.0002647774       -0.0001867306
       16.2950508750        5.1007015398       15.0313319771 m 1 1 1 v        0.0002169819       -0.0002211666        0.0000922203
       -2.5546133021        7.2458930694       15.0050665270 m 1 1 1 v        0.0000290547        0.0002396741       -0.0000628461
       -0.0471300734        7.2408303460       14.9611867582 m 1 1 1 v       -0.0001290645        0.0003475234       -0.0000868767
        2.4895950919        7.2337423087       15.0162085322 m 1 1 1 v        0.0000420477       -0.0001166375        0.0000376717
        5.0027343635        7.1685902725       15.1612418316 m 1 1 1 v       -0.0001724536        0.0001583120        0.0000690866
        7.5307486759        7.1947806997       15.0927316062 m 1 1 1 v       -0.0003905618       -0.0000193871       -0.0000198428
       10.0527263262        7.2572790439       15.0038835742 m 1 1 1 v       -0.0001039523        0.0000271079        0.0001280411
       12.5288848619        7.2749610632       14.8932363840 m 1 1 1 v        0.0002251456       -0.0001485918       -0.0002419386
       15.0744014676        7.2444533148       14.9535192013 m 1 1 1 v       -0.0001458079        0.0001143775       -0.0001376132
       -3.7672043186        9.4503537801       15.0364818395 m 1 1 1 v        0.0002264377       -0.0000819454        0.0000415390
       -1.2745068606        9.4467929025       14.9593477464 m 1 1 1 v       -0.0002771331        0.0000775680       -0.0000836614
        1.2090558179        9.4181861866       14.9472194096 m 1 1 1 v       -0.0000057305       -0.0002357319        0.0000194659
        3.7003359063        9.4234727616       15.0745287356 m 1 1 1 v        0.0000907190       -0.0000920332       -0.0001452932
        8.8120368408        9.4184485989       15.1315352129 m 1 1 1 v       -0.0000888624        0.0000808590        0.0000830095
       11.2861182039        9.4394017187       14.9492139997 m 1 1 1 v        0.0001289364       -0.0001080320        0.0001114955
       13.7944721000        9.3946316772       15.0283740417 m 1 1 1 v       -0.0000353377       -0.0001685614        0.0000553507
       -4.9819218297       11.5659053798       14.9642948862 m 1 1 1 v       -0.0001651915       -0.0001120853       -0.0001141002
       -2.5062846706       11.6317056480       15.0392581416 m 1 1 1 v        0.0000638281       -0.0003527920        0.0000677271
        0.0208639300       11.5589052254       14.9355311698 m 1 1 1 v        0.0000079896        0.0001587831       -0.0000301428
        2.5303192847       11.5845096135       14.8790475512 m 1 1 1 v        0.0002131874       -0.0001573889       -0.0000888504
        5.0278894324       11.6425085750       15.2091720816 m 1 1 1 v       -0.0001859887       -0.0000310518        0.0003043197
        7.6054432485       11.6254704946       15.1606449961 m 1 1 1 v        0.0000499150        0.0001397431        0.0001123172
       10.0672496898       11.5871308082       14.9598524075 m 1 1 1 v        0.0002039177        0.0002834807        0.0000827340
       12.5722859291       11.5868589488       14.9852261711 m 1 1 1 v        0.0003591588       -0.0000015564        0.0001181136
       -6.2866304946       13.7865542602       15.0033143254 m 1 1 1 v        0.0000408313       -0.0001562383        0.0000503596
       -3.7808051006       13.7312222458       15.0374271488 m 1 1 1 v       -0.0000403642       -0.0001367279        0.0000311532
       -1.2703500559       13.7819443743       14.9618618311 m 1 1 1 v       -0.0001932223       -0.0001857036       -0.0001501279
        1.2165220502       13.7355266368       14.9650474773 m 1 1 1 v        0.0000398765       -0.0000106969        0.0000250314
        3.7249657775       13.7890812162       14.9744942192 m 1 1 1 v       -0.0000275247       -0.0000448942        0.0001696017
        6.2485139698       13.7506831145       14.9843486659 m 1 1 1 v       -0.0004111296        0.0002156129        0.0000926537
        8.7560834010       13.7716943901       14.8837846774 m 1 1 1 v        0.0002057777        0.0000562219       -0.0000817061
       11.2865048598       13.7776221343       14.8927608033 m 1 1 1 v        0.0000805222       -0.0000030203       -0.0002267388
       -7.5207485654       15.9360085890       14.9460780860 m 1 1 1 v        0.0001081049        0.0000532118       -0.0000958686
       -5.0523272440       15.8980356476       15.0525566890 m 1 1 1 v        0.0001608619       -0.0001567405        0.0001272460
       -2.5516665673       15.9507408259       15.0030093945 m 1 1 1 v        0.0000008092       -0.0001417185       -0.0001146585
        0.0116430634       15.9523953746       15.0425920637 m 1 1 1 v       -0.0000518395       -0.0000810738        0.0000995560
        2.5349447097       15.9315175532       14.9844517909 m 1 1 1 v       -0.0000146475        0.0001769347        0.0000548187
        5.0392770614       15.9722722089       15.0390041292 m 1 1 1 v       -0.0001120204       -0.0000924952        0.0001778235
        7.5315691875       15.8938262643       14.9552427838 m 1 1 1 v       -0.0000349924        0.0002268905        0.0000760461
       10.0787526474       15.9540927262       14.9978404399 m 1 1 1 v        0.0000194252       -0.0002564255        0.0000622943
