ATOMIC_SPECIES
Ti 47.867 /home/jinming/on-the-fly-mlffs/1step/TiNB/upf/Ti.upf upf201
N 14.007 /home/jinming/on-the-fly-mlffs/1step/TiNB/upf/N.upf upf201
B 10.81 /home/jinming/on-the-fly-mlffs/1step/TiNB/upf/B.upf upf201

NUMERICAL_ORBITAL
/home/jinming/on-the-fly-mlffs/1step/TiNB/orb/Ti_gga_10au_100Ry_4s2p2d1f.orb
/home/jinming/on-the-fly-mlffs/1step/TiNB/orb/N_gga_10au_100Ry_2s2p1d.orb
/home/jinming/on-the-fly-mlffs/1step/TiNB/orb/B_gga_10au_100Ry_2s2p1d.orb

LATTICE_CONSTANT
1.889726

LATTICE_VECTORS
   20.0763846187     0.0000000000     0.0000000000 #latvec1
  -10.0381923094    17.3866592300     0.0000000000 #latvec2
    0.0000000000     0.0000000000    30.0000000000 #latvec3

ATOMIC_POSITIONS
Cartesian

Ti #label
0 #magnetism
1 #number of atoms
    6.3453713500     9.4412174100    16.3974363000 m  1  1  1 v     0.0000521109     0.0000797878     0.0000789917

N #label
0 #magnetism
64 #number of atoms
    4.8244835500    10.0277025500    15.4273701400 m  1  1  1 v     0.0004188410    -0.0009905657     0.0007093635
    0.2017565000     1.1647487300    15.1049303000 m  1  1  1 v    -0.0012459461     0.0000136769     0.0006126566
    2.3321264300     1.7926761800    14.9159937000 m  1  1  1 v     0.0015806655     0.0002833746    -0.0001210362
    4.8967936200     1.0958907800    15.0096372400 m  1  1  1 v     0.0001116545    -0.0004644894    -0.0004106625
    7.6713315400     1.5079645900    14.8793415100 m  1  1  1 v     0.0008018786     0.0000617573    -0.0002732225
   10.3611104400     1.4524152500    15.1275209300 m  1  1  1 v    -0.0004364793     0.0009251157    -0.0008005886
   12.3186733600     1.6072993600    15.3408314200 m  1  1  1 v    -0.0001965604     0.0008685239    -0.0003832672
   14.4428870100     1.6832266100    15.0382210100 m  1  1  1 v    -0.0017702804     0.0005666387    -0.0004987635
   17.6298827000     1.8415790300    14.8040483100 m  1  1  1 v     0.0006135909    -0.0007544494     0.0007303411
   -1.0647381800     3.3725800800    14.8951174600 m  1  1  1 v     0.0001153532    -0.0000823177     0.0000179704
    1.1987758800     3.6004231500    15.0258689000 m  1  1  1 v    -0.0004060331    -0.0001357399    -0.0007406148
    3.8110777900     3.5806064200    14.8363044100 m  1  1  1 v    -0.0000088379    -0.0001180629    -0.0001839737
    6.0868208000     3.4739075100    14.7753219700 m  1  1  1 v     0.0000625930     0.0003487321    -0.0003583251
    8.7518824800     3.6516771700    15.0852402900 m  1  1  1 v    -0.0003257335    -0.0007267031    -0.0009838715
   11.3373861300     3.6903721300    15.1338897400 m  1  1  1 v    -0.0007160251    -0.0005323348    -0.0009609920
   13.8684073900     3.5768754700    15.0436546900 m  1  1  1 v    -0.0003404968     0.0006520499     0.0000722325
   16.2741436300     3.5822169500    15.0557334000 m  1  1  1 v    -0.0002067051     0.0004914934     0.0003293163
   -2.3139018600     5.8149810900    15.0291052900 m  1  1  1 v     0.0008149842    -0.0007486815    -0.0001662307
   -0.4204127200     5.7418275200    15.0085439900 m  1  1  1 v    -0.0007469835    -0.0003308473    -0.0003889121
    2.3392865700     5.8321105700    14.9713920400 m  1  1  1 v    -0.0009857873    -0.0005652217    -0.0008355079
    5.0161906300     5.7668371100    14.8491783700 m  1  1  1 v     0.0004985179    -0.0001001532    -0.0003360569
    7.7032149100     5.8094156000    14.8341714400 m  1  1  1 v    -0.0008673513    -0.0003325091    -0.0001826287
    9.9567506100     5.7692803300    15.1101154600 m  1  1  1 v     0.0002336183    -0.0004746470     0.0001541360
   12.3970676100     5.5593468000    14.7739799900 m  1  1  1 v    -0.0003123982    -0.0000718262     0.0009897690
   14.9054875900     5.8312605000    14.8600743700 m  1  1  1 v     0.0000646937    -0.0007165515     0.0007385917
   -3.6893442200     7.8478936500    15.0036448400 m  1  1  1 v     0.0006267482     0.0002083022    -0.0003701457
   -1.0311640400     7.7941252900    14.9476451200 m  1  1  1 v    -0.0005862970    -0.0000573247    -0.0004072057
    1.4943690600     7.9610932400    14.9898579400 m  1  1  1 v     0.0015722288    -0.0006618484    -0.0004593518
    3.6934085800     7.9038894700    15.2376364000 m  1  1  1 v    -0.0005322148    -0.0009112645     0.0000416946
    6.2246851600     7.7317782100    15.4049505000 m  1  1  1 v     0.0004500262    -0.0005445360     0.0000684612
    8.7913646800     8.0999990800    15.0349179200 m  1  1  1 v    -0.0009942223     0.0003963985     0.0011158543
   11.2990249600     7.7290540200    14.8859272900 m  1  1  1 v     0.0008869112    -0.0009091783     0.0007302718
   13.7346939800     8.2459137600    14.8446078100 m  1  1  1 v    -0.0004340064     0.0000270242     0.0000061604
   -5.0579132900    10.2433198400    15.0452127000 m  1  1  1 v     0.0004290316    -0.0002531227    -0.0004104194
   -2.5421998300     9.7193069900    15.0622819900 m  1  1  1 v     0.0003874665    -0.0016544624    -0.0005685612
    0.0087975800     9.8705950500    14.9241590900 m  1  1  1 v     0.0000574318     0.0006369819     0.0000285427
    2.6488555900    10.1923461400    14.8399393000 m  1  1  1 v    -0.0010008526     0.0012023310     0.0001734795
    7.6914642300    10.2504476100    15.5623019800 m  1  1  1 v     0.0017404889     0.0006710705     0.0000811425
   10.2622303600    10.3008513600    14.9783199000 m  1  1  1 v     0.0002135721     0.0007985080     0.0003505358
   12.6969831900    10.1965118300    15.1570525300 m  1  1  1 v    -0.0005319255    -0.0009780265    -0.0000319208
   -6.5219658700    12.2060015600    14.8195851600 m  1  1  1 v     0.0004441294     0.0002779245    -0.0002529276
   -3.8075006200    12.4432613900    15.0512566600 m  1  1  1 v    -0.0003055838     0.0001483481    -0.0000763254
   -1.4176186200    12.3953151000    14.8613633900 m  1  1  1 v    -0.0005789726    -0.0005180900    -0.0004986288
    1.0529866800    12.5980411700    14.8220990800 m  1  1  1 v     0.0006374406    -0.0009257272     0.0002016437
    3.5837611000    12.4490501900    14.9119306100 m  1  1  1 v    -0.0017602894    -0.0000597399     0.0000494827
    6.0782410300    12.2188777300    15.3120265800 m  1  1  1 v     0.0010426552     0.0012663446     0.0007775900
    8.6545796300    12.5015066200    14.9725969500 m  1  1  1 v    -0.0011228285     0.0002247050     0.0006614051
   11.2075850400    12.2584632700    15.0028097400 m  1  1  1 v    -0.0011009587    -0.0005188131     0.0002024860
   -7.4157725500    13.8354890500    14.7760660900 m  1  1  1 v     0.0002495519    -0.0019029264    -0.0003748598
   -4.9515750200    14.6141480000    15.0437469900 m  1  1  1 v     0.0008293915     0.0003243403    -0.0005039062
   -2.4673939700    14.4510869000    15.0686237500 m  1  1  1 v    -0.0007907188     0.0005410003    -0.0004225037
    0.0628121000    14.4900780800    15.1001075500 m  1  1  1 v     0.0003349427     0.0016169574     0.0002879276
    2.7521189000    14.6217757100    15.0004020700 m  1  1  1 v     0.0008899616    -0.0005067769    -0.0001741561
    5.1404253900    14.3477462300    15.0867276200 m  1  1  1 v     0.0003526392     0.0001046911     0.0003457049
    7.9306928500    14.8550206900    14.9104534700 m  1  1  1 v     0.0010173014    -0.0003361367     0.0017889575
   10.1984320500    14.4352431400    14.8064715700 m  1  1  1 v    -0.0005732158     0.0007965924     0.0003947085
   -9.0339471000    16.6205174300    14.9207497300 m  1  1  1 v     0.0003992820    -0.0010078353     0.0002368464
   -6.2534487000    16.9302541200    14.9076906800 m  1  1  1 v    -0.0002610273     0.0003508120     0.0000454602
   -3.2772922000    16.6209249400    15.1826133800 m  1  1  1 v     0.0004429043    -0.0001933863    -0.0002051480
   -1.2911500000    16.7186937900    14.9419381800 m  1  1  1 v     0.0011300905     0.0001579049    -0.0004072039
    0.9357242700    16.5300671600    15.0895666200 m  1  1  1 v    -0.0013178661    -0.0009706226    -0.0005297009
    3.6863135600    16.6726401800    15.0693212000 m  1  1  1 v     0.0008822120     0.0011737405    -0.0006353802
    6.3664842800    16.4202714400    14.8935169600 m  1  1  1 v    -0.0002773912     0.0000908943     0.0007612664
    8.7011712000    17.0128747200    14.9198222800 m  1  1  1 v     0.0004516165     0.0008768684     0.0009014591

B #label
0 #magnetism
63 #number of atoms
    1.4550606000     0.6856622500    15.0242422900 m  1  1  1 v    -0.0003085723    -0.0003965510    -0.0003000793
    3.5645062700     0.7287297300    15.0394958000 m  1  1  1 v     0.0004325034     0.0005584396    -0.0002876770
    6.3156814500     0.5092420100    14.7813706600 m  1  1  1 v    -0.0001947983    -0.0000620756     0.0011515152
    9.0413799400     0.7950180600    15.2550554200 m  1  1  1 v     0.0007018034    -0.0006044011    -0.0006373440
   11.3094310600     0.7814066500    14.7376949200 m  1  1  1 v    -0.0007448104     0.0000961276     0.0009030917
   13.4466926000     0.7828229400    14.8616238100 m  1  1  1 v     0.0001495548    -0.0014424248     0.0016597758
   16.5505763000     0.5566682900    15.1830901200 m  1  1  1 v    -0.0003094038    -0.0007183623    -0.0015126542
   18.9956408800     1.0199404400    15.1229394000 m  1  1  1 v     0.0004360015     0.0007540072    -0.0013622196
    0.1529217400     2.6439043300    14.7493475500 m  1  1  1 v    -0.0005829979     0.0004725731     0.0007615731
    2.3964779900     3.4031531200    14.9477067300 m  1  1  1 v    -0.0015441533     0.0012054779     0.0001328541
    5.0342736700     2.5660908000    14.8175203400 m  1  1  1 v     0.0000780806     0.0001909866     0.0001223074
    7.5147226800     2.9188858300    14.9382437400 m  1  1  1 v     0.0004642934     0.0001958633     0.0003185288
   10.1296814200     3.0020379100    14.7535281800 m  1  1  1 v     0.0008353431     0.0008371484     0.0024213749
   12.4955393100     2.8902077900    15.0366171400 m  1  1  1 v     0.0000232034     0.0002698493     0.0015140367
   15.1683032100     2.7876975600    14.8249405600 m  1  1  1 v    -0.0005545832    -0.0000780655     0.0003262865
   17.5598449100     2.8549221100    15.3744546400 m  1  1  1 v     0.0006032380    -0.0004260817    -0.0002504132
   -1.4268038200     4.7832356700    14.9266536500 m  1  1  1 v     0.0003922017    -0.0004604944    -0.0000090454
    1.0464360900     5.1454252000    14.6848924700 m  1  1  1 v     0.0007850807     0.0006016600     0.0011157446
    3.5872398600     5.0445771600    14.8856318400 m  1  1  1 v     0.0005138619    -0.0003938902     0.0000875509
    6.2577764000     4.9212155000    14.8643224500 m  1  1  1 v    -0.0011935015    -0.0010672939    -0.0003678260
    8.7129959000     4.9760072100    14.6559351000 m  1  1  1 v    -0.0002287867     0.0000241996     0.0011179379
   11.2576345800     5.1175987100    14.9796671300 m  1  1  1 v     0.0012082406    -0.0000404448    -0.0000428671
   13.8776009200     4.8701770400    15.1901139600 m  1  1  1 v     0.0000975066    -0.0012510808    -0.0022511886
   16.4613029300     5.2334597700    14.8760024800 m  1  1  1 v    -0.0015450689     0.0010754443    -0.0001753743
   -2.4405219500     7.1879571600    14.8301222100 m  1  1  1 v     0.0001307179    -0.0004736763     0.0006379310
    0.1698213300     6.9442574900    14.9708242500 m  1  1  1 v    -0.0002979535    -0.0007575968     0.0002611281
    2.5115372600     7.4309400800    14.8928408200 m  1  1  1 v    -0.0004336803     0.0008382813     0.0007010938
    5.0707739900     7.0315986400    14.9508283000 m  1  1  1 v     0.0003361606    -0.0002379647     0.0007387562
    7.7454850900     7.0667592300    15.3513315900 m  1  1  1 v     0.0013942690     0.0005923421    -0.0012952727
   10.2153450900     7.1262680600    15.1548968900 m  1  1  1 v     0.0002586022     0.0010345905    -0.0006516222
   12.3498962700     7.0437333200    15.0821430600 m  1  1  1 v    -0.0002542393    -0.0000500537    -0.0017753566
   15.1610512500     7.2527224400    15.1111701500 m  1  1  1 v     0.0004350246     0.0001730558    -0.0010957005
   -3.9803655600     9.4352070700    14.9110662200 m  1  1  1 v    -0.0001610297     0.0008740106     0.0009340738
   -1.1255811600     9.0558100100    15.0353392100 m  1  1  1 v     0.0001011439    -0.0005145732     0.0003448997
    1.3353676900     9.6389714000    14.7259288600 m  1  1  1 v    -0.0005972555     0.0001765157     0.0000811466
    3.4883569100     9.2957502900    15.3822228400 m  1  1  1 v    -0.0008780215    -0.0003231794    -0.0001302440
    8.9193899000     9.4554876200    15.3614011300 m  1  1  1 v    -0.0006383595    -0.0008781106    -0.0006086986
   11.5553997000     9.5524525600    15.0902421500 m  1  1  1 v     0.0006658130     0.0007309250    -0.0003268814
   13.9306516400     9.6760152200    14.6327315100 m  1  1  1 v    -0.0003977617    -0.0002008679     0.0013880615
   -4.9827463200    11.6848766700    15.2444632200 m  1  1  1 v     0.0009040208     0.0002953654    -0.0005629542
   -2.5709818300    11.8067429800    14.7972159200 m  1  1  1 v    -0.0014837270     0.0016173643     0.0005399249
   -0.1697363300    11.6659802800    15.0148150200 m  1  1  1 v    -0.0003770625    -0.0013040866    -0.0004028305
    2.1702039200    11.6933677400    15.1535106100 m  1  1  1 v     0.0001395999     0.0010457131    -0.0012862953
    4.9135651000    11.5656808300    15.1311939000 m  1  1  1 v    -0.0006971962     0.0006213840    -0.0001296234
    7.4326971100    11.6320993300    15.1830812600 m  1  1  1 v     0.0002236312    -0.0009608007     0.0002768375
    9.9637270100    11.5941255400    14.8146690200 m  1  1  1 v    -0.0000662989     0.0000644548     0.0004243274
   12.2082302400    11.5611059100    14.8246651800 m  1  1  1 v     0.0007650501    -0.0000678213    -0.0000002120
   -6.2495250200    13.7037574400    15.0376043800 m  1  1  1 v     0.0002933367     0.0008216482    -0.0003684019
   -3.7358499600    13.8411988900    14.9180418000 m  1  1  1 v    -0.0000776457    -0.0008448995     0.0010285822
   -1.0749177700    14.0439427400    15.0463410300 m  1  1  1 v    -0.0005608423    -0.0007454783     0.0001276449
    1.2987906400    13.9190808700    14.7948927500 m  1  1  1 v     0.0008319464     0.0009924214     0.0001245094
    3.8418283100    13.7932136600    15.0016284100 m  1  1  1 v    -0.0005688252     0.0006530919     0.0002317557
    6.5581015700    13.7694749800    15.3673423000 m  1  1  1 v    -0.0006596801    -0.0011018650    -0.0012765354
    8.8109164900    13.9412578000    15.1737856700 m  1  1  1 v     0.0000380530     0.0007125902    -0.0016753719
   11.3541884200    13.6478985700    14.9245949900 m  1  1  1 v     0.0001248327    -0.0000497133    -0.0000905245
   -7.6405226200    16.4235175500    15.3507492000 m  1  1  1 v    -0.0006579017     0.0016297439    -0.0008229813
   -4.9884662700    16.0572309000    14.9811412700 m  1  1  1 v    -0.0006772303    -0.0009666178     0.0007844003
   -2.3886058400    15.9086179400    14.8100740900 m  1  1  1 v     0.0000444152     0.0001327658     0.0005536940
   -0.1914177400    15.9802240700    14.9074405200 m  1  1  1 v    -0.0001593718     0.0008684042     0.0004142897
    2.4363720800    15.8297707500    15.1980218100 m  1  1  1 v     0.0002712924    -0.0008249331     0.0003285642
    4.9106552800    15.9326036900    14.8227113400 m  1  1  1 v     0.0007476157     0.0007655476     0.0009296670
    7.7846424300    15.9376577400    15.3864378400 m  1  1  1 v     0.0001694803     0.0002728434    -0.0017149416
    9.8796862400    15.9900309400    14.6572961100 m  1  1  1 v     0.0019587525     0.0008158095    -0.0009721824
