ATOMIC_SPECIES
Ti  47.867  /home/jinming/on-the-fly-mlffs/1step/TiNB/upf/Ti.upf
N   14.007  /home/jinming/on-the-fly-mlffs/1step/TiNB/upf/N.upf
B   10.81   /home/jinming/on-the-fly-mlffs/1step/TiNB/upf/B.upf

NUMERICAL_ORBITAL
/home/jinming/on-the-fly-mlffs/1step/TiNB/orb/Ti_gga_10au_100Ry_4s2p2d1f.orb
/home/jinming/on-the-fly-mlffs/1step/TiNB/orb/N_gga_10au_100Ry_2s2p1d.orb
/home/jinming/on-the-fly-mlffs/1step/TiNB/orb/B_gga_10au_100Ry_2s2p1d.orb

LATTICE_CONSTANT
1.8897260000

LATTICE_VECTORS
    20.0763846187        0.0000000000        0.0000000000
    -10.0381923094       17.3866592300        0.0000000000
    0.0000000000        0.0000000000       30.0000000000

ATOMIC_POSITIONS
Direct

        
Hf
0.0000   #magnetism
32
        1.23922647        1.15031926        2.78008207 m 1 1 1 v -0.0003151310634165421        -0.0006384058817058376        -0.00024117020268468517

        1.23886015        1.15005796        7.98421149 m 1 1 1 v -0.0002844260204782608        -0.0005364518436820172        -4.918341460538974e-05

        6.26645406        1.15091647        2.7793277 m 1 1 1 v 5.863890946215095e-05        -0.000549952051791332        -0.00014664132991244882

        6.26950596        1.14886358        7.983483 m 1 1 1 v 6.21426324789976e-05        -0.00048433583256227353        5.456958298065796e-05

        3.7911678        8.81111579        2.42327168 m 1 1 1 v -7.489881824572575e-05        0.000484405839414481        -7.23281187151201e-05

        3.79073724        8.80979431        7.627998 m 1 1 1 v -5.313475977919343e-05        0.0005522051922958002        0.00016396208024514966

        8.81905823        8.80981949        2.4241138 m 1 1 1 v 0.0002924751125879675        0.0005452075346444827        6.111117599521916e-05

        8.8208497        8.81071885        7.62659409 m 1 1 1 v 0.00031299520139114497        0.0006329053542934511        0.0002358933824914875

        1.2775191        8.81036186        0.17778791 m 1 1 1 v -0.00019747799376474483        0.00031173324272971455        -0.0001911408413597599

        1.27617303        8.80950127        5.3822054 m 1 1 1 v -0.00036440843511090026        0.00044732171052729806        -6.409482290730732e-05

        6.30531576        8.81124676        0.17760213 m 1 1 1 v -8.038823982775957e-05        0.00045299572848091706        -0.00035779490886771637

        6.30587903        8.80905432        5.38076676 m 1 1 1 v -6.986872788852014e-05        0.0004982838705471249        -0.0001240114491883299

        3.75310952        1.14994176        5.02511679 m 1 1 1 v 6.919252139394634e-05        -0.0004876613643379793        0.00012734363080403927

        3.75350199        1.15118699        10.22937028 m 1 1 1 v 7.813738422766577e-05        -0.0004685949214541198        0.00034393232573737444

        8.78240388        1.15004167        5.02460459 m 1 1 1 v 0.00036529179962934365        -0.00043892428858708976        4.978782160796044e-05

        8.78268408        1.15010147        10.23063506 m 1 1 1 v 0.00019805847613969452        -0.0003166287741293117        0.00019412031967295832

        3.75319299        3.83139602        2.42408778 m 1 1 1 v 5.4079885006784594e-05        7.001173217138776e-05        -0.0001106692124814458

        3.75264113        3.82971261        7.62834144 m 1 1 1 v -1.1215477308004532e-05        0.00010885885685194661        0.00016568865415061528

        8.78269993        3.82990871        2.42340095 m 1 1 1 v 0.000351099988241433        4.2161075434093107e-05        -0.00012185733922799774

        8.78320992        3.8307883        7.62671226 m 1 1 1 v 0.0003182123209882297        9.96433395546141e-05        5.99266451456579e-05

        1.27620699        6.13018818        2.77950553 m 1 1 1 v -0.0003174397416091534        -0.00010954050671148699        -5.7542661854332156e-05

        1.27658604        6.13160747        7.98294644 m 1 1 1 v -0.0003499109587196228        -5.865858012708249e-05        0.00015130337140140132

        6.30501688        6.13114397        2.77880739 m 1 1 1 v 2.013607690436375e-05        -0.00010834915813978253        -0.00014287821191718132

        6.30620195        6.13128313        7.9834024 m 1 1 1 v -6.881720522087114e-05        -6.271767433444068e-05        0.00010381218315390185

        3.79082151        6.13156807        5.02582937 m 1 1 1 v 2.083386052206438e-05        1.6968004348290033e-05        1.3240864349173883e-05

        3.79110071        6.13055867        10.2305442 m 1 1 1 v -5.150074868729971e-06        -2.6969733623525297e-05        0.0002020519113577145

        8.82009044        6.13130876        5.02584404 m 1 1 1 v 0.0004456112106253328        -0.00011970865555987219        3.109464332052132e-05

        8.81875286        6.13234409        10.22889838 m 1 1 1 v 0.0004200415571367577        -0.00013513994078434878        0.0002921545516015373

        1.23898834        3.82867817        0.17854323 m 1 1 1 v -0.000418894125394585        0.00012869661288518542        -0.00030003056576171044

        1.23786068        3.82956218        5.38032304 m 1 1 1 v -0.0004472046312304266        9.985509584183231e-05        -2.4915394026927285e-05

        6.26711913        3.82933369        0.17884823 m 1 1 1 v -2.6430738055273406e-06        2.2501994370194018e-05        -0.0002198870269569679

        6.26616845        3.82976934        5.38271411 m 1 1 1 v 3.890443793573762e-06        -1.914288047565103e-05        -8.828321328786598e-06

O
0.0000   #magnetism
64
        0.01871273        0.22302609        1.24377833 m 1 1 1 v -0.0015976840995264455        -0.003143613047621075        -0.0026329683278732306

        0.01298472        0.22357185        6.44153758 m 1 1 1 v -0.0025541756590960613        -0.002162272461953496        -0.0006177100669661718

        5.04542484        0.22171288        1.23856313 m 1 1 1 v 0.0003107894388014931        -0.003573349969735898        -0.0035081357241121065

        5.04535583        0.22464317        6.44474773 m 1 1 1 v 0.0003175261443653708        -0.002922952941613079        -0.0005880241387158672

        5.01233965        9.73643529        3.96163914 m 1 1 1 v -0.0003006333029619566        0.0030433928146931964        0.0005295340276879519

        5.01420057        9.73342518        9.16564741 m 1 1 1 v -0.000175098283222716        0.0037145683196366506        0.003557214243450708

        10.0456207        9.7367943        3.96351837 m 1 1 1 v 0.002585326898740162        0.0020540426812068026        0.0007928324127993538

        10.04406187        9.73690174        9.1702908 m 1 1 1 v 0.001587618150858853        0.003100830551579217        0.0024676343218309593

        2.49951663        9.73305329        3.84182107 m 1 1 1 v -0.002216220390189974        0.0036326803991828696        0.0006404575192672143

        2.50276534        9.73626027        9.04979598 m 1 1 1 v -0.002433488398254253        0.0033494967426211243        0.0026615804541952753

        7.52969938        9.73201748        3.83936134 m 1 1 1 v -0.0008688177241140491        0.0030519002172876546        0.00037860282729403137

        7.52788417        9.7298814        9.04784967 m 1 1 1 v -0.0010429608359827944        0.00284814222218473        0.001771926636323923

        2.53516345        0.22212977        1.36225331 m 1 1 1 v 0.0009254497444878847        -0.0027372164449749213        -0.0018305661387038872

        2.5278545        0.22601822        6.56928088 m 1 1 1 v 0.000854131468533178        -0.0029925782319757547        -0.0003730516338513286

        7.55938403        0.22808075        1.36494127 m 1 1 1 v 0.002307013571677487        -0.0034216136877271677        -0.002814413426182592

        7.56065472        0.22568319        6.56532819 m 1 1 1 v 0.002198845471210656        -0.0036445958673899954        -0.0005263901111276412

        2.53481806        4.75475456        3.96244263 m 1 1 1 v -0.00024172311208668526        -0.00098104427906324        0.0010255706159767676

        2.53032991        4.75675638        9.16381822 m 1 1 1 v -1.126022237252517e-05        -0.000710182647241916        0.0044092691531434905

        7.56044016        4.75156186        3.96627449 m 1 1 1 v 0.001341342284939458        -0.00035439879343808234        0.0006771066209746208

        7.55616418        4.75302541        9.16414233 m 1 1 1 v 0.001227451124310844        -0.00013367916580129505        0.004478969583610352

        2.49776553        5.2063071        1.23731525 m 1 1 1 v -0.0010659099634346152        0.00016757903490079618        -0.0042114288777371466

        2.50107121        5.20584464        6.44529133 m 1 1 1 v -0.0013900432625547456        0.0005088902443451642        -0.0008266377456799004

        7.52434328        5.20674929        1.24121879 m 1 1 1 v 0.00017583273250469493        0.0005985516577741914        -0.004396932494018604

        7.52728473        5.20390013        6.45030359 m 1 1 1 v 0.00019318923946017442        0.0011075292005082492        -0.001242142490815574

        5.01579678        5.20561755        1.36037786 m 1 1 1 v -0.0002666813405329375        0.0006692905581304629        -0.0029940853513616135

        5.01648031        5.20150567        6.56791493 m 1 1 1 v -0.00032731803958157445        0.0005108834729052512        -0.0005045817672770131

        10.04506379        5.20453305        1.36667405 m 1 1 1 v 0.0033745747762018072        0.0012046152942953728        -0.00252569997221964

        10.04298918        5.20534907        6.56025573 m 1 1 1 v 0.0032940226798224416        0.0007067126473904364        -0.00021224996969120021

        0.01626627        4.75264804        3.84251741 m 1 1 1 v -0.0031372330591466512        -0.0007410929750775391        0.0004774507295485025

        0.01366132        4.75297224        9.05019478 m 1 1 1 v -0.003481070239537438        -0.0010892019672131415        0.0022065677597127077

        5.04776395        4.75770999        3.84088611 m 1 1 1 v 9.222843049066032e-05        -0.00038991069871445813        0.0004777327509619318

        5.04142726        4.75832624        9.04994555 m 1 1 1 v 0.00025030832135429883        -0.0008736427536855006        0.0028914417469029182

        0.65158067        7.05914538        4.55914572 m 1 1 1 v -0.001360913694873077        0.00016010543570005054        0.00020894139249700192

        0.64646663        7.06277613        9.76180037 m 1 1 1 v -0.0014727108369835178        0.0015706121072536954        0.0036273205638086216

        5.67994705        7.05820574        4.55768393 m 1 1 1 v 0.00026584514894681177        0.0005400146913200917        0.0004676016300789219

        5.67571127        7.06051812        9.76264673 m 1 1 1 v 0.00018857394823614822        0.0017950915336482206        0.003711929654406387

        4.38107411        2.89769847        0.64408451 m 1 1 1 v 2.7831043827962396e-05        -0.0015503669124821613        -0.003621512935316652

        4.37959602        2.90309056        5.85457431 m 1 1 1 v -0.000344469347705851        -0.0007409042200883168        -0.0006704289291216351

        9.41223159        2.89607952        0.64862371 m 1 1 1 v 0.0014223023346263404        -0.0015587180350880654        -0.003764338369194763

        9.40787273        2.89780229        5.84727341 m 1 1 1 v 0.0014418979976396373        -8.379004124073146e-05        -0.00012740301479235126

        1.86818206        2.89794689        1.95230072 m 1 1 1 v -0.00142311713017097        -0.0006620178722036473        -0.0012678764686179691

        1.86497069        2.90185903        7.16131599 m 1 1 1 v -0.0009112454712483121        -0.0006283383442377135        -0.00043558832678071424

        6.89315082        2.90016898        1.9542275 m 1 1 1 v -0.0010860372260189713        -0.000426898105487479        -0.0011991391457222497

        6.89841315        2.90024248        7.15851646 m 1 1 1 v -0.0003685070701947406        -0.0003983885785810355        -0.00035118814916378836

        3.16687373        7.06200679        3.24731896 m 1 1 1 v 0.0001793816500997344        6.16019970157192e-05        0.0004244707023583382

        3.16465242        7.06126481        8.45870945 m 1 1 1 v 0.000979937589451019        0.0005427807487084021        0.0009093034789062884

        8.19066059        7.06012668        3.25091009 m 1 1 1 v 0.0008867000213296175        0.0005773893537462444        0.000245328376823647

        8.1925468        7.06111186        8.45474247 m 1 1 1 v 0.0014416280710211784        0.0007355970811960918        0.0012362103589486084

        3.16313149        7.87478        0.64375905 m 1 1 1 v -0.0005395159794329941        -0.000473158601087726        -0.00229910138537094

        3.16463819        7.88062443        5.84817748 m 1 1 1 v -0.00025968781898136925        0.0013301822811173827        0.000866468540341357

        8.19899378        7.87907498        0.64812555 m 1 1 1 v -0.0007293183588527841        -0.001458774871374101        -0.002862425921085761

        8.19388851        7.87798425        5.84857064 m 1 1 1 v -0.0001313073796820967        0.0006585353966187729        0.0008733523198818688

        1.86565641        2.07844921        4.55509487 m 1 1 1 v 0.00010121067283096189        -0.0004050363350228479        -0.0005274517547711933

        1.86474063        2.08061685        9.76246545 m 1 1 1 v 0.0005751739111053372        0.0015172424118003792        0.002808192765204115

        6.8969826        2.08170191        4.55850562 m 1 1 1 v 9.786809688239816e-05        -0.0014563543886263347        -0.0009134455176279053

        6.89600926        2.08100281        9.7558326 m 1 1 1 v 0.0005316869329375425        0.0006622964969161269        0.0026713029233836577

        4.37758799        2.08530304        3.24972601 m 1 1 1 v 0.0006868354073918718        -0.001680412878062049        0.0015951244472743483

        4.3766432        2.07911148        8.45247648 m 1 1 1 v 0.00024091780825779348        -0.0011021176209980387        0.002256772745716723

        9.40744923        2.07757903        3.24734255 m 1 1 1 v 0.0023835075627680483        -0.0015092825129561932        0.0015207486008021634

        9.40808668        2.08082649        8.45351732 m 1 1 1 v 0.0018279921377711424        -0.0009893663868591627        0.002425231335694273

        0.64995825        7.87551962        1.95751215 m 1 1 1 v -0.0018032723132887418        0.0011260679498634285        -0.002561492184686536

        0.65158481        7.87941774        7.15622318 m 1 1 1 v -0.0023999452144993364        0.0016397702083838816        -0.0014074239908450346

        5.68017284        7.88027632        1.95588708 m 1 1 1 v -0.00011152569173828467        0.001128001498070381        -0.002330569343569947

        5.67418686        7.88357426        7.15414131 m 1 1 1 v -0.0003726941866298952        0.001209986240373662        -0.0013376605785586943

