ATOMIC_SPECIES
Ti  47.867  /home/jinming/on-the-fly-mlffs/1step/TiNB/Ti.upf
N   14.007  /home/jinming/on-the-fly-mlffs/1step/TiNB/N.upf
B   10.81   /home/jinming/on-the-fly-mlffs/1step/TiNB/B.upf

NUMERICAL_ORBITAL
/home/jinming/on-the-fly-mlffs/1step/TiNB/Ti_gga_10au_100Ry_4s2p2d1f.orb
/home/jinming/on-the-fly-mlffs/1step/TiNB/N_gga_10au_100Ry_2s2p1d.orb
/home/jinming/on-the-fly-mlffs/1step/TiNB/B_gga_10au_100Ry_2s2p1d.orb

LATTICE_CONSTANT
1.8897260000

LATTICE_VECTORS
       20.0763846187        0.0000000000        0.0000000000
      -10.0381923094       17.3866592300        0.0000000000
        0.0000000000        0.0000000000       30.0000000000

ATOMIC_POSITIONS
Direct

Ti #label
0.0000   #magnetism
1 #number of atoms
        0.5833330000        0.5416670000        0.5446745276 m 1 1 1

N #label
0.0000   #magnetism
64 #number of atoms
        0.5369269697        0.5880732120        0.5136942326 m 1 1 1
        0.0416670000        0.0833330000        0.5000000000 m 1 1 1
        0.1665650509        0.0831961389        0.4999199819 m 1 1 1
        0.2915408526        0.0830326903        0.4996746150 m 1 1 1
        0.4165236574        0.0830086773        0.4996905483 m 1 1 1
        0.5416879508        0.0831730838        0.5001728824 m 1 1 1
        0.6668195747        0.0833881428        0.5002889837 m 1 1 1
        0.7917672330        0.0833743798        0.5001945847 m 1 1 1
        0.9166588846        0.0833792928        0.5001817621 m 1 1 1
        0.0416205842        0.2083410572        0.5001817571 m 1 1 1
        0.1665485182        0.2083093142        0.4995329778 m 1 1 1
        0.2910299224        0.2075505425        0.4980920186 m 1 1 1
        0.4162527406        0.2074740217        0.4975567473 m 1 1 1
        0.5415417830        0.2075363870        0.4980917226 m 1 1 1
        0.6667715383        0.2082920055        0.4995906827 m 1 1 1
        0.7917772805        0.2083654666        0.5001816534 m 1 1 1
        0.9166513296        0.2083486308        0.5001234237 m 1 1 1
        0.0416254783        0.3332326739        0.5001945842 m 1 1 1
        0.1665609988        0.3332902060        0.4997416592 m 1 1 1
        0.2914662933        0.3331956778        0.4988496664 m 1 1 1
        0.4152202159        0.3315201448        0.4979747753 m 1 1 1
        0.5413713754        0.3315218570        0.4979665989 m 1 1 1
        0.6667904900        0.3331910345        0.4988367451 m 1 1 1
        0.7917620712        0.3332379259        0.4997264237 m 1 1 1
        0.9166345005        0.3332226633        0.5001816565 m 1 1 1
        0.0416117786        0.4581803763        0.5002889877 m 1 1 1
        0.1666028679        0.4582464130        0.4995890391 m 1 1 1
        0.2914728744        0.4582145261        0.4988310530 m 1 1 1
        0.4166627894        0.4583019366        0.5031877383 m 1 1 1
        0.5369446847        0.4488311316        0.5136811248 m 1 1 1
        0.6667042935        0.4582960486        0.5031897594 m 1 1 1
        0.7918090930        0.4582095213        0.4988366561 m 1 1 1
        0.9167079776        0.4582284188        0.4995906307 m 1 1 1
        0.0418270433        0.5833120849        0.5001728711 m 1 1 1
        0.1665361307        0.5833061399        0.5001742006 m 1 1 1
        0.2910501306        0.5834421029        0.4980934169 m 1 1 1
        0.4152205408        0.5836314825        0.4979658034 m 1 1 1
        0.6761693800        0.5880556446        0.5136816985 m 1 1 1
        0.7934785421        0.5836288124        0.4979666652 m 1 1 1
        0.9174638733        0.5834582908        0.4980916279 m 1 1 1
        0.0419914573        0.7084764133        0.4996905616 m 1 1 1
        0.1667126706        0.7083679266        0.5005283175 m 1 1 1
        0.2915400509        0.7084580605        0.4996822209 m 1 1 1
        0.4162726073        0.7087273145        0.4975484891 m 1 1 1
        0.5413685142        0.7097794268        0.4979657916 m 1 1 1
        0.6666982321        0.7083371971        0.5031879001 m 1 1 1
        0.7934801265        0.7097799025        0.4979747772 m 1 1 1
        0.9175261929        0.7087473566        0.4975566893 m 1 1 1
        0.0419674958        0.8334592578        0.4996746551 m 1 1 1
        0.1668164305        0.8334094484        0.5003056930 m 1 1 1
        0.2916244273        0.8333756409        0.5002921361 m 1 1 1
        0.4165419037        0.8334599759        0.4996821585 m 1 1 1
        0.5415578044        0.8339498529        0.4980934305 m 1 1 1
        0.6667854158        0.8335270307        0.4988310447 m 1 1 1
        0.7918043318        0.8335336186        0.4988496020 m 1 1 1
        0.9174495922        0.8339701595        0.4980919581 m 1 1 1
        0.0418038846        0.9584349960        0.4999199779 m 1 1 1
        0.1666960239        0.9583039905        0.5004664133 m 1 1 1
        0.2915906301        0.9581837183        0.5003056564 m 1 1 1
        0.4166320848        0.9582873971        0.5005283363 m 1 1 1
        0.5416938182        0.9584638503        0.5001741238 m 1 1 1
        0.6667534987        0.9583970434        0.4995890488 m 1 1 1
        0.7917097094        0.9584388218        0.4997416395 m 1 1 1
        0.9166907114        0.9584514857        0.4995330062 m 1 1 1

B #label
0.0000   #magnetism
63 #number of atoms
        0.0833330000        0.0416670000        0.5000000000 m 1 1 1
        0.2082653480        0.0415621357        0.5001077932 m 1 1 1
        0.3332359489        0.0414344370        0.4999643244 m 1 1 1
        0.4583356798        0.0415385941        0.5002182763 m 1 1 1
        0.5835026050        0.0417269275        0.5003290333 m 1 1 1
        0.7084312354        0.0416893891        0.5000995420 m 1 1 1
        0.8333752703        0.0416812036        0.5000894536 m 1 1 1
        0.9583537826        0.0417455919        0.4999843266 m 1 1 1
        0.0832543767        0.1666462766        0.4999843034 m 1 1 1
        0.2079572957        0.1663981750        0.4992011430 m 1 1 1
        0.3329609005        0.1661481452        0.4983524140 m 1 1 1
        0.4582058997        0.1661324250        0.4983580213 m 1 1 1
        0.5834252235        0.1663529052        0.4993035564 m 1 1 1
        0.7084764876        0.1667087503        0.5000965012 m 1 1 1
        0.8333970875        0.1666932401        0.5001796228 m 1 1 1
        0.9582878266        0.1667121265        0.5001794462 m 1 1 1
        0.0833185768        0.2916246009        0.5000894456 m 1 1 1
        0.2081988037        0.2916587604        0.4992976363 m 1 1 1
        0.3323706831        0.2906576811        0.4978318396 m 1 1 1
        0.4578095498        0.2905584052        0.4976223282 m 1 1 1
        0.5833545716        0.2906484216        0.4978191729 m 1 1 1
        0.7084871478        0.2916375889        0.4992959931 m 1 1 1
        0.8333756649        0.2916242600        0.5000729828 m 1 1 1
        0.9583067335        0.2916028481        0.5001796434 m 1 1 1
        0.0833104248        0.4165686087        0.5000995526 m 1 1 1
        0.2082385445        0.4165471012        0.4992982863 m 1 1 1
        0.3333027384        0.4166258408        0.4997601655 m 1 1 1
        0.4564027621        0.4138624802        0.5044669677 m 1 1 1
        0.5825339011        0.4138748557        0.5044665781 m 1 1 1
        0.7083852514        0.4166148928        0.4997598896 m 1 1 1
        0.8333623549        0.4165127477        0.4992959420 m 1 1 1
        0.9582912080        0.4165234456        0.5000964967 m 1 1 1
        0.0832730988        0.5414974368        0.5003290736 m 1 1 1
        0.2079823418        0.5415695053        0.4993040335 m 1 1 1
        0.3323713513        0.5416430603        0.4978165517 m 1 1 1
        0.4563966119        0.5424711045        0.5044697867 m 1 1 1
        0.7111256319        0.5424664283        0.5044668224 m 1 1 1
        0.8343518870        0.5416455439        0.4978191150 m 1 1 1
        0.9586472704        0.5415747803        0.4993034902 m 1 1 1
        0.0834614191        0.6666642684        0.5002182607 m 1 1 1
        0.2082585176        0.6666585891        0.5002156851 m 1 1 1
        0.3329831537        0.6667818117        0.4983541947 m 1 1 1
        0.4578162037        0.6671836922        0.4976179193 m 1 1 1
        0.5825290319        0.6686034741        0.5044698364 m 1 1 1
        0.7111379138        0.6685974085        0.5044672337 m 1 1 1
        0.8344419041        0.6671905620        0.4976223234 m 1 1 1
        0.9588677435        0.6667941289        0.4983579664 m 1 1 1
        0.0835656329        0.7917641173        0.4999643847 m 1 1 1
        0.2083770394        0.7917183935        0.5003626386 m 1 1 1
        0.3332573597        0.7917426883        0.4999530451 m 1 1 1
        0.4582180911        0.7920168002        0.4983541685 m 1 1 1
        0.5833569632        0.7926286759        0.4978165364 m 1 1 1
        0.7083741455        0.7916971504        0.4997602041 m 1 1 1
        0.8343425276        0.7926294234        0.4978317604 m 1 1 1
        0.9588520339        0.7920392279        0.4983523802 m 1 1 1
        0.0834378858        0.9167347210        0.5001078053 m 1 1 1
        0.2083610262        0.9166390658        0.5003550514 m 1 1 1
        0.3332816553        0.9166230519        0.5003626264 m 1 1 1
        0.4583413356        0.9167415003        0.5002156215 m 1 1 1
        0.5834304217        0.9170175732        0.4993040226 m 1 1 1
        0.7084527656        0.9167612865        0.4992983096 m 1 1 1
        0.8333411603        0.9168010026        0.4992976510 m 1 1 1
        0.9586019030        0.9170427942        0.4992011459 m 1 1 1
