ATOMIC_SPECIES
Ti 47.867 /home/jinming/on-the-fly-mlffs/1step/TiNB/upf/Ti.upf upf201
N 14.007 /home/jinming/on-the-fly-mlffs/1step/TiNB/upf/N.upf upf201
B 10.81 /home/jinming/on-the-fly-mlffs/1step/TiNB/upf/B.upf upf201

NUMERICAL_ORBITAL
/home/jinming/on-the-fly-mlffs/1step/TiNB/orb/Ti_gga_10au_100Ry_4s2p2d1f.orb
/home/jinming/on-the-fly-mlffs/1step/TiNB/orb/N_gga_10au_100Ry_2s2p1d.orb
/home/jinming/on-the-fly-mlffs/1step/TiNB/orb/B_gga_10au_100Ry_2s2p1d.orb

LATTICE_CONSTANT
1.889726

LATTICE_VECTORS
   20.0763846187     0.0000000000     0.0000000000 #latvec1
  -10.0381923094    17.3866592300     0.0000000000 #latvec2
    0.0000000000     0.0000000000    30.0000000000 #latvec3

ATOMIC_POSITIONS
Cartesian

Ti #label
0 #magnetism
1 #number of atoms
    6.3225423900     9.4215197900    16.3749193300 m  1  1  1 v     0.0001457368     0.0000751417     0.0001156344

N #label
0 #magnetism
64 #number of atoms
    4.7290893700    10.2354641500    15.3424633600 m  1  1  1 v    -0.0000399295    -0.0003813123    -0.0001030163
    0.3283138100     1.2803006300    15.0042231000 m  1  1  1 v     0.0007945374    -0.0008994923     0.0002470215
    2.2305099400     1.6963155900    14.9519619200 m  1  1  1 v    -0.0007007390     0.0005858926    -0.0001808821
    4.9464486800     1.1850736500    15.0364712900 m  1  1  1 v    -0.0003509282    -0.0007393978     0.0002327876
    7.5189036900     1.4457030900    14.9492427800 m  1  1  1 v     0.0004649436     0.0003667942    -0.0002883890
   10.2837669200     1.4012138000    15.1940384100 m  1  1  1 v     0.0009598920    -0.0001597941     0.0004079375
   12.3951783900     1.4115363100    15.2698921100 m  1  1  1 v    -0.0005886910     0.0004093651     0.0011286640
   14.7512052700     1.5538392300    15.0708123600 m  1  1  1 v    -0.0012196388     0.0004935620     0.0001969344
   17.5429974300     1.7249457000    14.7645119500 m  1  1  1 v     0.0001460056     0.0013566677    -0.0007196386
   -1.2985769800     3.4355113700    14.9485196100 m  1  1  1 v     0.0012105910    -0.0005492546    -0.0003651422
    1.2175819900     3.7145314700    15.0776201700 m  1  1  1 v    -0.0001903858    -0.0002310114     0.0003472443
    3.8375616700     3.6378938000    14.8710341300 m  1  1  1 v    -0.0001359573    -0.0001758965    -0.0001105857
    6.2319756700     3.4564816900    14.8581759000 m  1  1  1 v    -0.0007840734    -0.0003955871    -0.0003257917
    8.8188057900     3.7264080400    15.1240635600 m  1  1  1 v    -0.0001693877     0.0001375044     0.0007451712
   11.3515829100     3.7798505000    15.2123792200 m  1  1  1 v     0.0002300297     0.0001516081     0.0003325083
   13.8708819100     3.4442930400    15.0145849500 m  1  1  1 v     0.0003579266    -0.0001266760     0.0001208895
   16.4294590700     3.5994226900    15.0264888800 m  1  1  1 v    -0.0003359685    -0.0005407436     0.0000148807
   -2.5035453300     5.9000539900    15.0288040600 m  1  1  1 v     0.0005628831     0.0000424949     0.0001929185
   -0.1877928500     5.7098427400    15.0175315400 m  1  1  1 v    -0.0012551759     0.0000940564     0.0002930737
    2.4938380600     5.8928618400    15.0436698800 m  1  1  1 v    -0.0004458504     0.0001222812     0.0001647525
    4.9055735500     5.6535977300    14.8923499100 m  1  1  1 v     0.0001493128     0.0002792490    -0.0000894866
    7.6819827800     5.7635252700    14.8508605500 m  1  1  1 v     0.0007574540     0.0003689501    -0.0000769217
    9.9191453000     5.7322231400    15.0304751800 m  1  1  1 v     0.0000023512     0.0003988866     0.0004480683
   12.5222187000     5.6462619900    14.7174280300 m  1  1  1 v    -0.0004288699    -0.0006741851    -0.0006863494
   14.9979375100     5.9084692700    14.8301678900 m  1  1  1 v    -0.0004880329     0.0000810920    -0.0006154541
   -3.7933002000     7.9119648300    15.0373159200 m  1  1  1 v     0.0002096088    -0.0005576222     0.0000607878
   -1.0457350500     7.7198161500    14.9812556900 m  1  1  1 v     0.0009665718    -0.0002573990     0.0000927983
    1.1147223900     8.1334862100    15.0237522800 m  1  1  1 v     0.0007069354    -0.0002384261     0.0001025066
    3.8559828500     7.9877187600    15.1702860000 m  1  1  1 v    -0.0003676704     0.0002042627     0.0006058929
    6.2660010100     7.7669031800    15.4223711300 m  1  1  1 v    -0.0004348363     0.0001373120    -0.0001913483
    9.0063665700     7.9317446100    14.9721792100 m  1  1  1 v    -0.0003243460     0.0007036427    -0.0005492513
   11.1871647900     8.0013769700    14.8381357600 m  1  1  1 v    -0.0000788595    -0.0009187952    -0.0005049253
   13.9185247300     8.1371241700    14.8721539100 m  1  1  1 v    -0.0007202323     0.0010102255    -0.0002981578
   -5.0587810200    10.3073590300    15.0867880600 m  1  1  1 v    -0.0002421846     0.0002775795     0.0002462462
   -2.6026661500    10.1068890900    15.1027773500 m  1  1  1 v    -0.0000662059    -0.0016997771     0.0002844870
    0.0291150600     9.9214823100    14.9198020100 m  1  1  1 v    -0.0000563318    -0.0008283411     0.0000541400
    2.6101728400    10.0912185400    14.8238652800 m  1  1  1 v     0.0008036848    -0.0001103662    -0.0001555604
    7.4746291800    10.1552544900    15.5077179900 m  1  1  1 v    -0.0001800015     0.0000224429     0.0003889656
   10.1494694900    10.1132926800    14.9539579900 m  1  1  1 v     0.0006729258     0.0003969898    -0.0001104388
   12.7244556600    10.2911157700    15.0936744100 m  1  1  1 v     0.0004146223     0.0003152486     0.0006123740
   -6.4551960300    12.1773251400    14.9292153200 m  1  1  1 v    -0.0009163630    -0.0000602438    -0.0006291147
   -3.7651707300    12.3769225500    15.0397756600 m  1  1  1 v    -0.0001396052     0.0003817239     0.0002518080
   -1.2033494700    12.5955956900    14.9661147300 m  1  1  1 v    -0.0005247360    -0.0004085952    -0.0003424151
    0.9867533400    12.5384385500    14.8414132100 m  1  1  1 v    -0.0004827433     0.0012433549    -0.0003245539
    3.9109112700    12.3252323200    14.9587698500 m  1  1  1 v    -0.0007179041     0.0007071373    -0.0003636009
    6.1483248100    12.1151754100    15.1862188000 m  1  1  1 v    -0.0011623863    -0.0003768963     0.0003151965
    8.8257659800    12.4030167400    14.8876641300 m  1  1  1 v    -0.0003546680     0.0005012274     0.0000276982
   11.2075581400    12.3392189900    14.9574075800 m  1  1  1 v     0.0003033279     0.0000560600     0.0002380567
   -7.5067896900    14.1986827000    14.8211138900 m  1  1  1 v     0.0003339427    -0.0014546626    -0.0002529392
   -5.1085504300    14.5649713800    15.1068277600 m  1  1  1 v     0.0001572384     0.0002697141     0.0000172989
   -2.3663180700    14.4828450400    15.0707473200 m  1  1  1 v     0.0004443632    -0.0005549242     0.0003738916
    0.0710161200    14.3633540300    15.0252634700 m  1  1  1 v     0.0001162110    -0.0002953371     0.0003879363
    2.4469677400    14.5410984300    14.9911365300 m  1  1  1 v     0.0012106851     0.0008004227     0.0001804461
    5.1667136100    14.4176696900    15.0281608600 m  1  1  1 v    -0.0001847900    -0.0004705784     0.0001828785
    7.6527334000    14.7023533400    14.7388989500 m  1  1  1 v     0.0009169154     0.0011323666    -0.0007110646
   10.1029175700    14.4154021300    14.8002256200 m  1  1  1 v     0.0010644844    -0.0003898360    -0.0004218280
   -8.9416605800    16.8902563400    14.9324600800 m  1  1  1 v    -0.0007544865    -0.0003872646    -0.0003607884
   -6.2341087800    16.7153457100    14.9588453700 m  1  1  1 v     0.0000858367     0.0008794377    -0.0005379830
   -3.6090836900    16.6445443100    15.1481421900 m  1  1  1 v     0.0018082190     0.0000993763     0.0007515554
   -1.4168110100    16.7159586400    15.0048482000 m  1  1  1 v    -0.0001678370     0.0001561239    -0.0001470134
    1.3050068400    16.7617233000    15.1267381500 m  1  1  1 v    -0.0010833287    -0.0006415968     0.0002033074
    3.5773143900    16.5438513500    15.1065825200 m  1  1  1 v    -0.0003791095    -0.0001740492     0.0003717307
    6.4832576400    16.4282703200    14.8834154100 m  1  1  1 v    -0.0003836229    -0.0004065093    -0.0006919447
    8.6568904700    16.7622865900    14.8478017300 m  1  1  1 v    -0.0001145905     0.0009392292    -0.0003905675

B #label
0 #magnetism
63 #number of atoms
    1.4055867500     0.6952397500    15.0336768600 m  1  1  1 v     0.0005646084     0.0004113307     0.0000881334
    3.5687802700     0.8580411300    15.0580743200 m  1  1  1 v    -0.0010994211    -0.0001322473     0.0001296702
    6.4216455700     0.6756767600    14.7408992000 m  1  1  1 v    -0.0002088669    -0.0009140889    -0.0008435467
    8.8322821400     0.8429162700    15.2075886700 m  1  1  1 v     0.0007963192     0.0003497559     0.0009457502
   11.4584972200     0.5533911700    14.7717395300 m  1  1  1 v     0.0000276522     0.0009084705    -0.0012243202
   13.5679309000     0.9469717800    14.7517787400 m  1  1  1 v    -0.0012529688     0.0000595634    -0.0007378694
   16.5242760700     0.6922092600    15.2890428100 m  1  1  1 v     0.0006159518    -0.0004017200     0.0008190886
   18.8435121700     0.7681248000    15.2253016400 m  1  1  1 v     0.0003879747     0.0008677131     0.0006918974
    0.1494825000     2.6277091400    14.7598957700 m  1  1  1 v     0.0008661866    -0.0009120015    -0.0008764217
    2.6690312000     2.8765319700    14.9285354700 m  1  1  1 v     0.0000642994     0.0022177455    -0.0000303825
    4.8959655800     2.7627368000    14.8316462800 m  1  1  1 v     0.0002932531    -0.0011443747    -0.0003092549
    7.4161101900     2.8638838600    14.8877181600 m  1  1  1 v     0.0000294913     0.0001301890    -0.0000027553
    9.9793578400     2.9142664000    14.5991314300 m  1  1  1 v     0.0003013861     0.0000177995    -0.0012798984
   12.6311825400     2.9297887400    14.8706282000 m  1  1  1 v    -0.0005864693    -0.0003399597    -0.0002688690
   15.0878716200     2.9294811400    14.8640874200 m  1  1  1 v     0.0007421493    -0.0005601614    -0.0006917311
   17.5843149800     3.1692372100    15.2557204000 m  1  1  1 v    -0.0008382501    -0.0006450934     0.0012868149
   -1.3489201700     4.9663204400    14.9232005900 m  1  1  1 v    -0.0008193620    -0.0007291485    -0.0000549661
    0.8992665900     5.0157699800    14.7044470000 m  1  1  1 v    -0.0002832987     0.0003708001    -0.0011387316
    3.6944930600     5.0481047900    14.8748430300 m  1  1  1 v    -0.0008917528     0.0001100373    -0.0000517133
    6.4217112500     5.1395382900    14.9039852900 m  1  1  1 v    -0.0000904085    -0.0004349989     0.0000183013
    8.9191167000     5.0726382100    14.6639346700 m  1  1  1 v    -0.0007588081    -0.0005092842    -0.0010617954
   11.0586780100     5.0419109700    15.0043561700 m  1  1  1 v    -0.0003534369     0.0003027706    -0.0000481413
   13.7942312700     5.0964598100    15.3537779800 m  1  1  1 v     0.0003089277    -0.0004278002     0.0011505411
   16.5674269900     4.8773690100    14.9558529000 m  1  1  1 v     0.0006602714     0.0010360118    -0.0004349198
   -2.3478430200     7.3585878300    14.8219368400 m  1  1  1 v    -0.0001428839    -0.0005037182    -0.0006004636
    0.1682781500     7.3050405600    14.9431385400 m  1  1  1 v     0.0004024966    -0.0012059404    -0.0000264958
    2.5831621400     7.1772524800    14.8517061100 m  1  1  1 v     0.0002478408     0.0005136883    -0.0004856911
    4.9261296800     7.2817016000    14.9663836800 m  1  1  1 v     0.0005134786    -0.0008265828    -0.0007712882
    7.4519229000     7.1550896100    15.4167298600 m  1  1  1 v     0.0008317498    -0.0008034107     0.0008754836
    9.8941981100     7.1461840200    15.1768581800 m  1  1  1 v     0.0012833399    -0.0012106600     0.0005490020
   12.5351239700     7.0938263100    15.2186110400 m  1  1  1 v    -0.0004992847    -0.0005652039     0.0008222770
   14.8911590900     7.3125942500    15.1548615000 m  1  1  1 v     0.0009787097    -0.0004975111     0.0007362117
   -3.8114843300     9.2455134600    14.8532121900 m  1  1  1 v    -0.0007172777     0.0001568554    -0.0005200773
   -1.2949937000     9.2825695900    14.9681174000 m  1  1  1 v     0.0006956605    -0.0009575364     0.0001812180
    1.4119933900     9.3351586400    14.8087505400 m  1  1  1 v     0.0004860443     0.0015235562    -0.0007206002
    3.8287951600     9.3888163500    15.3273581000 m  1  1  1 v    -0.0010455377    -0.0004862400     0.0007771113
    8.9412437600     9.5557448800    15.3468075300 m  1  1  1 v     0.0003453321     0.0001591172     0.0007741983
   11.4045110400     9.3462000100    15.0768894600 m  1  1  1 v     0.0005475229     0.0005978594     0.0004724379
   13.8249165700     9.5373638800    14.6113726700 m  1  1  1 v     0.0007052299     0.0010455057    -0.0013659473
   -5.2752228100    11.6674486400    15.1795273300 m  1  1  1 v     0.0006554740     0.0000108080     0.0009641480
   -2.3895889100    11.3872575700    14.8284201500 m  1  1  1 v    -0.0000560679     0.0012980329    -0.0008903075
   -0.1201200600    11.8934689300    15.0095272500 m  1  1  1 v    -0.0004144010     0.0000805040     0.0002868769
    2.3514953000    11.5835675100    15.1956489600 m  1  1  1 v    -0.0011724953     0.0000657768     0.0009585484
    4.8009230100    11.4571570300    15.1697496900 m  1  1  1 v     0.0006380189    -0.0004046499    -0.0001540135
    7.4200776900    11.7653603000    15.1648852200 m  1  1  1 v    -0.0002876037     0.0000371497     0.0000080778
   10.0661738300    11.7281454100    14.8315176600 m  1  1  1 v    -0.0007006979    -0.0003865082    -0.0005048411
   12.5377267000    11.5995516700    14.8773708800 m  1  1  1 v    -0.0019463920    -0.0002742691    -0.0004812768
   -6.2186595400    13.5195960100    15.0670231500 m  1  1  1 v    -0.0000204831    -0.0000368556     0.0001385349
   -3.7417349900    13.9218277200    14.8396504600 m  1  1  1 v     0.0001377847     0.0004219410    -0.0004899102
   -1.2641437200    13.7471307800    14.9959383100 m  1  1  1 v     0.0007309379     0.0021128466     0.0002336295
    1.3598965200    13.9063726200    14.8497765100 m  1  1  1 v    -0.0008247582    -0.0002681774    -0.0005357382
    3.8884553800    13.7371550500    14.9708216400 m  1  1  1 v     0.0004391366    -0.0002000690     0.0000282608
    6.3388669800    13.9334082300    15.3552525400 m  1  1  1 v     0.0023196741    -0.0001338551     0.0013416719
    8.9745409400    13.8373203200    15.2446378600 m  1  1  1 v    -0.0005876671     0.0000866308     0.0012028946
   11.3593120700    13.6864877600    14.9304447100 m  1  1  1 v    -0.0000185365    -0.0003906570     0.0000946623
   -7.5314606300    16.1065864000    15.3274507400 m  1  1  1 v    -0.0002687431     0.0009020580     0.0011934008
   -4.7888591400    16.0653542200    14.9292840000 m  1  1  1 v    -0.0003669934     0.0004461664    -0.0003751433
   -2.3801469200    15.7618141800    14.7982685900 m  1  1  1 v     0.0004090581     0.0002146159    -0.0006285470
   -0.0889049000    15.7831691300    14.9066221500 m  1  1  1 v    -0.0006382204    -0.0000125973    -0.0004608779
    2.3533077500    16.1354526600    15.0936552000 m  1  1  1 v     0.0001653613    -0.0005301921     0.0005314892
    4.8729610500    15.7376331400    14.8183536700 m  1  1  1 v    -0.0004014795     0.0002050950    -0.0008203971
    7.6050033200    16.1572399800    15.4125802100 m  1  1  1 v     0.0012522078    -0.0006775452     0.0016947439
    9.7480073400    15.7385312900    14.8805736400 m  1  1  1 v    -0.0013463943     0.0005069849    -0.0007208577
