INPUT_PARAMETERS

#Parameters (1.General)
calculation         	md
symmetry	        	0		# When doing md calculations, turn off symmetry
nspin		        	1		# 1 means non spin 

#Parameters (2.Iteration)
ecutwfc                 80             # Rydberg
scf_thr                 1e-6	    	# Rydberg
scf_nmax   		        100

#Parameters (3.Basis)
basis_type              lcao                 


#Parameters (4.Smearing)
smearing_method		    gaussian
smearing_sigma		    0.01

#Parameters (5.Mixing)
mixing_type	        	pulay
mixing_beta	        	0.4
mixing_gg0              1.5
mixing_ndim             20
fixed_axes              c
vdw_method              d3_0
gamma_only              1

#Parameters (6.MD)
cal_force		        1
cal_stress 		        1
md_type                 nve
md_thermostat           nhc
md_nstep                1         # 
md_dt                   1           # fs
md_tfirst               300         # Kelvin
md_tlast                300         # Kelvin
md_restart          	1    		# whether restart md
md_dumpfreq         	1   		# The period to dump MD information


out_stru 		        1
out_chg  0



