ATOMIC_SPECIES
Ti  47.867  /home/jinming/on-the-fly-mlffs/1step/TiNB/upf/Ti.upf
N   14.007  /home/jinming/on-the-fly-mlffs/1step/TiNB/upf/N.upf
B   10.81   /home/jinming/on-the-fly-mlffs/1step/TiNB/upf/B.upf

NUMERICAL_ORBITAL
/home/jinming/on-the-fly-mlffs/1step/TiNB/orb/Ti_gga_10au_100Ry_4s2p2d1f.orb
/home/jinming/on-the-fly-mlffs/1step/TiNB/orb/N_gga_10au_100Ry_2s2p1d.orb
/home/jinming/on-the-fly-mlffs/1step/TiNB/orb/B_gga_10au_100Ry_2s2p1d.orb

LATTICE_CONSTANT
1.8897260000

LATTICE_VECTORS
    20.0763846187        0.0000000000        0.0000000000
    -10.0381923094       17.3866592300        0.0000000000
    0.0000000000        0.0000000000       30.0000000000

ATOMIC_POSITIONS
Cartesian

        
Ti
0.0000   #magnetism
1
        6.36134008        9.45456479        16.41542177 m 1 1 1 v 3.27654087325196e-05        2.324369914252323e-05        5.492158986143471e-05

N
0.0000   #magnetism
64
        4.8199805        9.92576043        15.58207282 m 1 1 1 v -0.0005702149608995152        -7.04639861987485e-05        0.0005496974194526647

        0.13519678        1.25832116        15.25690042 m 1 1 1 v 0.0002032587615733027        0.0009645537424399956        0.0005600847024249985

        2.62546789        1.79360358        14.91561175 m 1 1 1 v 0.000552034611010237        0.00026844523801646485        8.325855976166743e-05

        4.98514886        1.04278614        14.91323009 m 1 1 1 v 0.0009269274102009575        0.00042214268049130705        -0.00043277703750474656

        7.84060915        1.4446182        14.85980439 m 1 1 1 v 0.0005160383776382686        -0.0005679934797459292        0.00018611861506343533

        10.17370836        1.759641        14.93870908 m 1 1 1 v -0.001024127480770318        0.0011579650747896026        -0.000826767604387858

        12.2718353        1.63164348        15.22620738 m 1 1 1 v -3.7590531164153525e-05        -0.0007528715396121896        -0.00041039416806713146

        13.97194929        1.85879499        14.87918198 m 1 1 1 v -0.002551341911281564        0.0014522281265742822        -0.0007845660794805414

        17.71767364        1.45746116        14.95667972 m 1 1 1 v -0.0005951395576404173        -0.001915831933838315        0.0008204757958236276

        -1.15288343        3.38716729        14.94620196 m 1 1 1 v -0.0005929200168294931        0.0002714249755812856        0.0003256035117397988

        0.92459815        3.72988696        14.84779132 m 1 1 1 v -0.0013585326206056781        0.0010869623299653718        -0.0008288052554175134

        3.77933207        3.61870387        14.81525732 m 1 1 1 v -0.0002730417312910308        0.00023337609178715964        2.1894359876709373e-05

        6.24557159        3.43638636        14.72709971 m 1 1 1 v 0.0008265343305914467        -0.0008830156067488955        -4.384558893205108e-05

        8.78311831        3.54324191        14.85369429 m 1 1 1 v 0.0006899642553572507        5.704982214745466e-05        -0.0008830771622647446

        11.16593788        3.73749426        14.91924802 m 1 1 1 v -0.00023440570424132685        0.00043589206392729895        -0.0008863594420731608

        13.75472119        3.48023628        15.04894255 m 1 1 1 v -0.0005005853754907583        -0.000637279597745813        1.80664200923664e-05

        16.36849074        3.67894522        15.15100731 m 1 1 1 v 0.00041446342189137514        0.00029689691424166214        0.00032909104188319184

        -2.23205614        5.66237475        14.96278035 m 1 1 1 v -0.0009750453076190904        -0.000584740028474704        -0.00030385896219792854

        -0.47361141        5.65549754        14.9174768 m 1 1 1 v 0.0009222992506546833        0.00018511435388862918        -0.000376113677474981

        2.23434262        5.64957061        14.77970484 m 1 1 1 v 0.0004641968191052224        -0.0007169381777198098        -0.0007432482343917141

        4.98734901        5.59533577        14.76083558 m 1 1 1 v -0.0009457736598882064        -0.0006366332298702015        -0.00028654185755494624

        7.42118187        5.64974104        14.77666161 m 1 1 1 v -0.0011607777330823626        -0.0008112287953507944        -0.00022114680723195497

        10.02328438        5.69260147        15.09897926 m 1 1 1 v 0.00026525772761906404        0.00018342032500128394        -0.0001638032592743214

        12.55253172        5.57470368        14.99481702 m 1 1 1 v 0.0016175766887332945        7.549077787919984e-05        0.0008023051469610488

        15.04056167        5.70593435        15.01623231 m 1 1 1 v 0.0007266502284529559        -0.0001856814284026971        0.0004816764611549272

        -3.61782854        7.99699609        14.91701983 m 1 1 1 v 4.9608943080896576e-05        0.0006924099128427233        -0.0003459702761564415

        -1.11370755        7.54315308        14.84321083 m 1 1 1 v 6.967924480506589e-05        -0.0011345791001328525        -0.0003885471223824064

        1.40692158        8.03767155        14.87735593 m 1 1 1 v -0.0014966784819672118        0.0008883767553922443        -0.0005063003889091911

        3.77208101        7.74412146        15.25747421 m 1 1 1 v 0.001195886817516495        -0.0002524588114258634        0.000197867111121214

        6.41329425        7.60418        15.44652601 m 1 1 1 v 0.0010627717777890143        -0.0004597864556447189        0.00023835077976581742

        8.81268924        8.04458919        15.29767041 m 1 1 1 v 0.0011392452620891456        -0.0006864891924596147        0.0011018684392960904

        11.3844098        7.76780247        15.0503961 m 1 1 1 v -6.680007762348006e-05        0.00100099818458746        0.0006674293431891805

        13.73329063        8.13322519        14.83923952 m 1 1 1 v 0.0004907118497108705        -0.0014799851999389387        -0.00016859069333548403

        -5.01059751        10.33544041        14.96474456 m 1 1 1 v 5.935565094837233e-05        0.00037653381293134455        -0.0003095506847388903

        -2.4907702        9.31246289        14.94024134 m 1 1 1 v 8.426534128817355e-05        -0.002232248012078609        -0.0004795179554045717

        -0.02358245        10.10271411        14.94316333 m 1 1 1 v -0.000520524390356653        0.0013073965378473961        0.00015872595490885318

        2.27038317        10.43312436        14.9064474 m 1 1 1 v -0.0016312749262668556        0.00043013646239882736        0.00043385286946969533

        7.98946654        10.33318449        15.60281828 m 1 1 1 v 0.0007615639625048973        -6.036429386124581e-05        0.00036714318671203603

        10.2546607        10.28852487        15.07554364 m 1 1 1 v -0.00027245345987177773        -0.000643194466909598        0.0003324896766698277

        12.64463873        10.04255359        15.13403256 m 1 1 1 v -0.00017798961843456878        -0.00015144546511221046        -0.00013073713287973325

        -6.28386587        12.34198466        14.82818256 m 1 1 1 v 0.0014751666769208828        0.0010982523928879965        0.00031448220579218244

        -3.9087596        12.45465853        15.05849826 m 1 1 1 v -0.0006240957953170426        0.00012482923184701397        0.00021296482142301693

        -1.38300096        12.49364977        14.7769208 m 1 1 1 v 0.0005177344952933545        0.000409374440911786        -0.0002520097119006946

        1.09840917        12.40708502        14.87462088 m 1 1 1 v -0.0002823145022494688        -0.0004184151376782882        0.0002804172354218243

        3.35698977        12.4306197        14.95928361 m 1 1 1 v 0.00030987689607452784        0.0004368060704286139        0.00043799180943609886

        6.34350824        12.42596568        15.44117708 m 1 1 1 v 0.0009195711309187948        0.00012449680492126263        0.0004305531004127876

        8.49156179        12.50393876        15.09124668 m 1 1 1 v 0.00011070390033404752        -8.972293179125401e-05        0.00011972370828693453

        11.03709573        12.21585739        15.04924186 m 1 1 1 v 0.0002854849743889206        0.0002875150088563338        0.0001364092511364649

        -7.44592993        13.37748505        14.62993828 m 1 1 1 v -0.0004092170998131519        -0.0026842575205721793        -0.0007096103220218885

        -4.85630987        14.57035048        14.95048632 m 1 1 1 v -0.00010076306058691847        -0.0007566508020888348        -0.0003102987819147059

        -2.56641401        14.55603965        14.9542266 m 1 1 1 v -3.741590230707646e-05        0.00012073524573591212        -0.00052774101874155

        0.17530314        14.77306893        15.14468325 m 1 1 1 v 0.0003568932029180418        0.0005915675835254201        0.00011603651163387785

        2.74061518        14.48124615        14.93553407 m 1 1 1 v -0.000574969422155569        -0.00044987362634942317        -0.00023477188393405049

        5.202785        14.50689953        15.14408285 m 1 1 1 v -0.0002656474471668288        0.001279222000474547        0.00011050666666687881

        7.82992469        14.63935163        15.33859832 m 1 1 1 v -0.001499912780021695        -0.0009874284603044346        0.0018200947756683169

        10.07486927        14.71883093        14.85838117 m 1 1 1 v 0.00016557670953861364        0.001422927557547335        -4.430707153867128e-05

        -8.81435042        16.70681737        14.9705288 m 1 1 1 v 0.0008584525127306247        0.0015119695167343844        8.733360921843254e-05

        -6.26121068        16.88984209        14.96847065 m 1 1 1 v -6.63693594473761e-05        -0.0003329643674705159        0.0005910566330592759

        -3.43440084        16.58337641        15.16104074 m 1 1 1 v -0.001615827675262018        -0.000389138271840476        2.211266021905705e-05

        -1.16076332        16.81694384        14.82505959 m 1 1 1 v 5.524252764325368e-05        0.0005045021326996981        -0.0006907523277203945

        1.02471551        16.49656409        14.97401443 m 1 1 1 v 0.0021386122491822376        0.000600777171701914        -0.0004903624901105854

        3.79968624        16.74975173        14.93960774 m 1 1 1 v 0.0002359624176306419        -0.0007848484433375398        -0.0003541716717482139

        6.38925516        16.47897097        15.09400706 m 1 1 1 v 0.0003210925250915804        0.0005479384982395218        0.0008768189572015123

        8.95208404        16.96115681        15.06632754 m 1 1 1 v 0.001839818134871305        -0.0012587407889803866        0.00014060619383825712

B
0.0000   #magnetism
63
        1.3431092        0.72810527        14.9268047 m 1 1 1 v -0.0003775622438508712        0.0011161404304975405        -0.00048199196528512855

        3.65978244        1.12663103        14.94845196 m 1 1 1 v 0.001093633831264528        0.0012109961782335763        -0.0004808508535872998

        6.37736314        0.59914447        15.1100314 m 1 1 1 v 0.0008570028754046271        0.0005964226746075777        0.0014462926439024718

        9.09847282        0.75185794        14.94814676 m 1 1 1 v -0.00019942505673555805        0.000755976096202395        -0.0017106727195988782

        11.21787608        0.61563597        15.06332421 m 1 1 1 v -0.0006291378058858552        -0.0006633435167976218        0.0018311949250629394

        13.45116866        0.68239293        15.30048994 m 1 1 1 v -3.6389546823200196e-06        0.0009954366911725484        0.0019817371932672047

        16.61894897        0.45395558        14.82227769 m 1 1 1 v 0.00021817406115094706        0.0003882820516535574        -0.0015076343388912203

        18.830522        0.99800725        14.78208534 m 1 1 1 v -0.0005054984557947768        -0.0016534787638194392        -0.001432744575731575

        -0.0453735        2.6506878        15.00777316 m 1 1 1 v -0.0010442612488302378        -2.6442863375019076e-05        0.0014474404409354099

        2.40110497        3.30889022        14.93312113 m 1 1 1 v 0.00041872421286239696        -0.0020828577970417954        -0.0002923901450915461

        4.87268414        2.66366694        14.85916606 m 1 1 1 v -0.0009435988225619656        0.00028660434835194466        0.0001754817163904716

        7.55708018        2.86846842        14.94445471 m 1 1 1 v 0.000252113238354506        -0.000709726920395788        -0.00032853849503422294

        10.10504959        3.06311715        15.35201558 m 1 1 1 v -0.0013534353952012973        -0.00048066748295558275        0.0024325366352363578

        12.62840057        2.96122053        15.33039758 m 1 1 1 v 0.0008047034923125942        -0.00048732065515587        0.0007580529744005755

        14.95589776        2.95178049        14.99686834 m 1 1 1 v -0.0008153643656385652        0.0009912781774787487        0.0011954310177342737

        17.70475694        3.11635661        15.18258579 m 1 1 1 v 0.00025557874407330494        0.001421556922082859        -0.0015070041550254913

        -1.32812424        4.79941439        14.88550059 m 1 1 1 v 0.000287296179512405        0.000536709361731812        -0.00022866444105047655

        0.97575438        5.18698556        15.03764567 m 1 1 1 v -0.0006889182291086642        -0.000601641039210018        0.0016365110954378692

        3.7596612        4.99015096        14.86429864 m 1 1 1 v 0.0005133948558271083        0.00030315276903246277        -0.00031798585948263785

        6.09680319        4.86068217        14.75758259 m 1 1 1 v 0.00023454187707154674        0.0002896958622448917        -0.0005666783374589053

        8.79108154        5.01458715        15.02864166 m 1 1 1 v 0.00025327904907530033        -6.834903005002157e-05        0.0017881781316078959

        11.18153937        4.96512536        15.00393211 m 1 1 1 v -0.0009457245913184608        -0.000699964590598049        0.00019974492114025567

        13.78665146        4.86996854        14.63807584 m 1 1 1 v -0.000657779499811513        0.0010657257398415945        -0.0021330847543967204

        16.28729816        5.26247555        14.93188816 m 1 1 1 v 0.00022066823607126888        -0.0007373948938273895        0.0006294862375643937

        -2.30983707        7.18886591        15.02669655 m 1 1 1 v -0.000303379229778378        0.00030047446588644944        0.0008966120041837993

        0.13855794        7.00208734        14.99228377 m 1 1 1 v -9.75910011937323e-05        0.0009009928567271432        -0.00017741418740060443

        2.62973329        7.17026939        15.02025666 m 1 1 1 v 0.0004056893617387888        -0.00236497628849134        0.0003794949216062585

        5.01174582        7.14563725        15.21323408 m 1 1 1 v -0.00022219855288093914        0.0003407540977504067        0.0012962649285002334

        7.73709771        7.17410484        14.99362396 m 1 1 1 v -0.0019075888355269421        -0.000287867977642015        -0.0015852448025738038

        9.98036435        7.26926451        14.99673303 m 1 1 1 v -0.0013466805095832673        0.00013886425033022445        -0.0005649487760979589

        12.66069434        6.98739501        14.67659596 m 1 1 1 v 0.002201624158326859        0.00024914649612781776        -0.0015711516173984128

        15.04924323        7.38866833        14.7945704 m 1 1 1 v -0.0009687011477538397        0.0009863082564120584        -0.0014433102080907878

        -3.77719419        9.42352752        15.1257214 m 1 1 1 v 0.0011765678599009266        -0.0007935735065069684        0.0007935660105708264

        -1.25316969        9.09978668        15.06589605 m 1 1 1 v -0.0004069477706285882        0.00047474963663183623        -0.00021106134982984534

        1.27934699        9.44693769        14.83302915 m 1 1 1 v -0.00020938357830589078        -0.0013250838743182397        0.0007852335365921518

        3.46333447        9.2766849        15.25277417 m 1 1 1 v 0.00010514442284106775        0.00038185710442972766        -0.0009261291090689799

        8.94284307        9.50014753        15.16100251 m 1 1 1 v 0.0012006503657441216        0.0012913505439788903        -0.0010134600277838161

        11.43284392        9.50412859        14.98051664 m 1 1 1 v -0.001962641260774557        -0.0014059209608609827        -0.0005596169936321933

        13.76910412        9.43603149        15.04279215 m 1 1 1 v 1.108047303201252e-05        -0.001284796234617776        0.001983455518837015

        -5.12573921        11.72066807        14.96490973 m 1 1 1 v -0.0017068523163363356        -0.0002133306348732429        -0.0015672382861748391

        -2.69132413        11.94331505        14.94282688 m 1 1 1 v 0.0010817258598064992        -0.0006812102463150956        0.0006496958319835056

        -0.21142189        11.45785023        14.85093999 m 1 1 1 v 0.0007244185497410152        -0.0005814429615224104        -0.0009808703206094533

        2.35027511        11.84767434        14.77834611 m 1 1 1 v 0.00034193611560064975        -0.00029611243066645276        -0.001866051308923075

        4.62347437        11.70575615        15.16321263 m 1 1 1 v -0.0016966305023704195        0.0008499258137432079        0.0005078110369334086

        7.52796711        11.60747013        15.28411895 m 1 1 1 v 0.0008656413861298418        0.0007850498020575131        0.0006593493642310312

        9.80824928        11.78209692        15.0014131 m 1 1 1 v -0.0014412699406991197        0.0006976311707245322        0.0011027270814743851

        12.57411044        11.6557018        14.89452985 m 1 1 1 v 0.0015608736166390189        0.0016337114220854895        0.0006673450507946261

        -6.1071252        13.8343235        14.93192762 m 1 1 1 v -3.745685843804957e-05        0.0007071203625299237        -0.0007765366135369468

        -3.74712007        13.83418055        15.16138429 m 1 1 1 v -8.893033270557623e-05        0.0008789517710403275        0.0009924892805363535

        -1.33744609        13.7437458        15.03918061 m 1 1 1 v -0.0008386528834421186        -0.0007827656052413457        -0.00019154461061641557

        1.48627148        14.08389584        14.92131987 m 1 1 1 v -0.000374719924517219        -0.00023138053777179378        0.0008526489402963944

        3.93389033        13.81159598        15.05898431 m 1 1 1 v 0.0011414431177397418        -0.0004357788530416272        0.00020371143668007069

        6.42839589        13.67792294        15.00415127 m 1 1 1 v -0.00033468277669437775        0.0006641484978239628        -0.0015220466446347952

        8.96669697        13.92733603        14.7658908 m 1 1 1 v 9.209923099906535e-05        -0.0006247963958296143        -0.0015740492636453103

        11.2754703        13.63535625        14.91458113 m 1 1 1 v -0.0008649267934029693        -8.338141576553498e-05        -0.00011955700561507655

        -7.57189658        16.50804274        15.0479703 m 1 1 1 v 0.0015151957890063089        -0.0013368212796762153        -0.0016218307224452543

        -4.98838656        15.95604583        15.15924182 m 1 1 1 v 0.0006279268578122938        0.0006213374219147127        0.0006172350803749045

        -2.23244722        15.88416236        14.94772748 m 1 1 1 v 0.0008614156008379212        0.0009493362294164954        0.0007382776049735783

        -0.22705162        15.93111555        15.02691408 m 1 1 1 v 0.00023637643111734734        -0.0009009031178953087        0.0006387414744039124

        2.42569384        15.91464003        15.16596891 m 1 1 1 v -0.00010588577666918282        0.0009217851649323462        -0.0007368193764640097

        5.11528355        15.92183121        15.12551257 m 1 1 1 v 0.0007252526695844228        -0.0006641061887400954        0.0014723665787085359

        7.76096655        16.30818561        14.90792373 m 1 1 1 v -5.324328152585524e-05        0.0011498557006845403        -0.00210920761061363

        10.02966272        16.0351807        14.63124433 m 1 1 1 v -0.00010407769806887203        0.0003297640267042432        0.0007949048735519087

