ATOMIC_SPECIES
Hf 178.492 /home/jinming/1step/HfO/Hf_ONCV_PBE-1.0.upf
O 15.999 /home/jinming/1step/HfO/O_ONCV_PBE-1.0.upf

NUMERICAL_ORBITAL
/home/jinming/1step/HfO/Hf_gga_7au_100Ry_4s2p2d2f1g.orb
/home/jinming/1step/HfO/O_gga_7au_100Ry_2s2p1d.orb

LATTICE_CONSTANT
1.889726

LATTICE_VECTORS
10.06659329004  0.000000000000  0.000000000000
0.000000000000  9.968341479513  0.000000000000
0.000000000000  0.000000000000  10.41546149931

ATOMIC_POSITIONS
Direct

Hf
0.000
32
0.123140971900  0.115510539400  0.267084093550  1  1  1  mag  0.0
0.123140971900  0.115510539400  0.767084093550  1  1  1  mag  0.0
0.623140971900  0.115510539400  0.267084093550  1  1  1  mag  0.0
0.623140971900  0.115510539400  0.767084093550  1  1  1  mag  0.0
0.376859028100  0.884489460600  0.232915906450  1  1  1  mag  0.0
0.376859028100  0.884489460600  0.732915906450  1  1  1  mag  0.0
0.876859028100  0.884489460600  0.232915906450  1  1  1  mag  0.0
0.876859028100  0.884489460600  0.732915906450  1  1  1  mag  0.0
0.126859028100  0.884489460600  0.017084093550  1  1  1  mag  0.0
0.126859028100  0.884489460600  0.517084093550  1  1  1  mag  0.0
0.626859028100  0.884489460600  0.017084093550  1  1  1  mag  0.0
0.626859028100  0.884489460600  0.517084093550  1  1  1  mag  0.0
0.373140971900  0.115510539400  0.482915906450  1  1  1  mag  0.0
0.373140971900  0.115510539400  0.982915906450  1  1  1  mag  0.0
0.873140971900  0.115510539400  0.482915906450  1  1  1  mag  0.0
0.873140971900  0.115510539400  0.982915906450  1  1  1  mag  0.0
0.373140971900  0.384489460600  0.232915906450  1  1  1  mag  0.0
0.373140971900  0.384489460600  0.732915906450  1  1  1  mag  0.0
0.873140971900  0.384489460600  0.232915906450  1  1  1  mag  0.0
0.873140971900  0.384489460600  0.732915906450  1  1  1  mag  0.0
0.126859028100  0.615510539400  0.267084093550  1  1  1  mag  0.0
0.126859028100  0.615510539400  0.767084093550  1  1  1  mag  0.0
0.626859028100  0.615510539400  0.267084093550  1  1  1  mag  0.0
0.626859028100  0.615510539400  0.767084093550  1  1  1  mag  0.0
0.376859028100  0.615510539400  0.482915906450  1  1  1  mag  0.0
0.376859028100  0.615510539400  0.982915906450  1  1  1  mag  0.0
0.876859028100  0.615510539400  0.482915906450  1  1  1  mag  0.0
0.876859028100  0.615510539400  0.982915906450  1  1  1  mag  0.0
0.123140971900  0.384489460600  0.017084093550  1  1  1  mag  0.0
0.123140971900  0.384489460600  0.517084093550  1  1  1  mag  0.0
0.623140971900  0.384489460600  0.017084093550  1  1  1  mag  0.0
0.623140971900  0.384489460600  0.517084093550  1  1  1  mag  0.0

O 
0.000
64
0.001494704750  0.022632592700  0.119181426650  1  1  1  mag  0.0
0.001494704750  0.022632592700  0.619181426650  1  1  1  mag  0.0
0.501494704750  0.022632592700  0.119181426650  1  1  1  mag  0.0
0.501494704750  0.022632592700  0.619181426650  1  1  1  mag  0.0
0.498505295250  0.977367407300  0.380818573350  1  1  1  mag  0.0
0.498505295250  0.977367407300  0.880818573350  1  1  1  mag  0.0
0.998505295250  0.977367407300  0.380818573350  1  1  1  mag  0.0
0.998505295250  0.977367407300  0.880818573350  1  1  1  mag  0.0
0.248505295250  0.977367407300  0.369181426650  1  1  1  mag  0.0
0.248505295250  0.977367407300  0.869181426650  1  1  1  mag  0.0
0.748505295250  0.977367407300  0.369181426650  1  1  1  mag  0.0
0.748505295250  0.977367407300  0.869181426650  1  1  1  mag  0.0
0.251494704750  0.022632592700  0.130818573350  1  1  1  mag  0.0
0.251494704750  0.022632592700  0.630818573350  1  1  1  mag  0.0
0.751494704750  0.022632592700  0.130818573350  1  1  1  mag  0.0
0.751494704750  0.022632592700  0.630818573350  1  1  1  mag  0.0
0.251494704750  0.477367407300  0.380818573350  1  1  1  mag  0.0
0.251494704750  0.477367407300  0.880818573350  1  1  1  mag  0.0
0.751494704750  0.477367407300  0.380818573350  1  1  1  mag  0.0
0.751494704750  0.477367407300  0.880818573350  1  1  1  mag  0.0
0.248505295250  0.522632592700  0.119181426650  1  1  1  mag  0.0
0.248505295250  0.522632592700  0.619181426650  1  1  1  mag  0.0
0.748505295250  0.522632592700  0.119181426650  1  1  1  mag  0.0
0.748505295250  0.522632592700  0.619181426650  1  1  1  mag  0.0
0.498505295250  0.522632592700  0.130818573350  1  1  1  mag  0.0
0.498505295250  0.522632592700  0.630818573350  1  1  1  mag  0.0
0.998505295250  0.522632592700  0.130818573350  1  1  1  mag  0.0
0.998505295250  0.522632592700  0.630818573350  1  1  1  mag  0.0
0.001494704750  0.477367407300  0.369181426650  1  1  1  mag  0.0
0.001494704750  0.477367407300  0.869181426650  1  1  1  mag  0.0
0.501494704750  0.477367407300  0.369181426650  1  1  1  mag  0.0
0.501494704750  0.477367407300  0.869181426650  1  1  1  mag  0.0
0.064498492750  0.708933094300  0.437906734900  1  1  1  mag  0.0
0.064498492750  0.708933094300  0.937906734900  1  1  1  mag  0.0
0.564498492750  0.708933094300  0.437906734900  1  1  1  mag  0.0
0.564498492750  0.708933094300  0.937906734900  1  1  1  mag  0.0
0.435501507250  0.291066905700  0.062093265100  1  1  1  mag  0.0
0.435501507250  0.291066905700  0.562093265100  1  1  1  mag  0.0
0.935501507250  0.291066905700  0.062093265100  1  1  1  mag  0.0
0.935501507250  0.291066905700  0.562093265100  1  1  1  mag  0.0
0.185501507250  0.291066905700  0.187906734900  1  1  1  mag  0.0
0.185501507250  0.291066905700  0.687906734900  1  1  1  mag  0.0
0.685501507250  0.291066905700  0.187906734900  1  1  1  mag  0.0
0.685501507250  0.291066905700  0.687906734900  1  1  1  mag  0.0
0.314498492750  0.708933094300  0.312093265100  1  1  1  mag  0.0
0.314498492750  0.708933094300  0.812093265100  1  1  1  mag  0.0
0.814498492750  0.708933094300  0.312093265100  1  1  1  mag  0.0
0.814498492750  0.708933094300  0.812093265100  1  1  1  mag  0.0
0.314498492750  0.791066905700  0.062093265100  1  1  1  mag  0.0
0.314498492750  0.791066905700  0.562093265100  1  1  1  mag  0.0
0.814498492750  0.791066905700  0.062093265100  1  1  1  mag  0.0
0.814498492750  0.791066905700  0.562093265100  1  1  1  mag  0.0
0.185501507250  0.208933094300  0.437906734900  1  1  1  mag  0.0
0.185501507250  0.208933094300  0.937906734900  1  1  1  mag  0.0
0.685501507250  0.208933094300  0.437906734900  1  1  1  mag  0.0
0.685501507250  0.208933094300  0.937906734900  1  1  1  mag  0.0
0.435501507250  0.208933094300  0.312093265100  1  1  1  mag  0.0
0.435501507250  0.208933094300  0.812093265100  1  1  1  mag  0.0
0.935501507250  0.208933094300  0.312093265100  1  1  1  mag  0.0
0.935501507250  0.208933094300  0.812093265100  1  1  1  mag  0.0
0.064498492750  0.791066905700  0.187906734900  1  1  1  mag  0.0
0.064498492750  0.791066905700  0.687906734900  1  1  1  mag  0.0
0.564498492750  0.791066905700  0.187906734900  1  1  1  mag  0.0
0.564498492750  0.791066905700  0.687906734900  1  1  1  mag  0.0
