ATOMIC_SPECIES
Ti  47.867  /home/jinming/on-the-fly-mlffs/1step/TiNB/upf/Ti.upf
N   14.007  /home/jinming/on-the-fly-mlffs/1step/TiNB/upf/N.upf
B   10.81   /home/jinming/on-the-fly-mlffs/1step/TiNB/upf/B.upf

NUMERICAL_ORBITAL
/home/jinming/on-the-fly-mlffs/1step/TiNB/orb/Ti_gga_10au_100Ry_4s2p2d1f.orb
/home/jinming/on-the-fly-mlffs/1step/TiNB/orb/N_gga_10au_100Ry_2s2p1d.orb
/home/jinming/on-the-fly-mlffs/1step/TiNB/orb/B_gga_10au_100Ry_2s2p1d.orb

LATTICE_CONSTANT
1.8897260000

LATTICE_VECTORS
    20.0763846187        0.0000000000        0.0000000000
    -10.0381923094       17.3866592300        0.0000000000
    0.0000000000        0.0000000000       30.0000000000

ATOMIC_POSITIONS
Cartesian

        
Ti
0.0000   #magnetism
1
        6.35087236        9.44239537        16.39947727 m 1 1 1 v 8.305195669805663e-05        8.707013728695453e-05        9.418327341622433e-05

N
0.0000   #magnetism
64
        4.82471081        10.03030868        15.42938133 m 1 1 1 v 0.0004365282325244255        -0.0009760550093763018        0.0007169673625490957

        0.20020343        1.15540433        15.10902788 m 1 1 1 v -0.0012419792498653496        -9.965354242595915e-05        0.000659041473639998

        2.33153933        1.78484376        14.91535581 m 1 1 1 v 0.0015275724142440673        0.0002481277716563063        -0.00012994507919738933

        4.87806377        1.09290678        15.01282392 m 1 1 1 v -5.737747853010836e-05        -0.0004961056233326708        -0.0003843545264155402

        7.66808294        1.50185943        14.87788484 m 1 1 1 v 0.0007890494459236679        4.0886789442694295e-05        -0.00029064563003451156

        10.37076841        1.44993815        15.13208749 m 1 1 1 v -0.0003673082243064169        0.0009313659687500434        -0.0007875117515522344

        12.3086313        1.60985455        15.34655133 m 1 1 1 v -0.0002958646084146708        0.0009210549379929751        -0.00034767203859437134

        14.44857586        1.68603299        15.03676514 m 1 1 1 v -0.001710909118975473        0.0005696341549717815        -0.0005049014658535555

        17.6291004        1.8594249        14.79490959 m 1 1 1 v 0.0006223386104312517        -0.0006241429519089087        0.0006802234876340736

        -1.05899334        3.37171187        14.89362733 m 1 1 1 v 0.00016335528650711928        -9.20511223562846e-05        1.1314270912776322e-05

        1.19087663        3.5881704        15.03205906 m 1 1 1 v -0.00036959511575052853        -0.00025711876484788964        -0.0006973081833723174

        3.81591489        3.58148058        14.83624146 m 1 1 1 v 3.951222818162422e-05        -0.00011153231509965729        -0.00018662776447981626

        6.0814951        3.47521177        14.77512372 m 1 1 1 v 2.6095752032118566e-07        0.0003515730108339223        -0.0003596937010647587

        8.7492216        3.65913854        15.09428422 m 1 1 1 v -0.0003547910560400752        -0.0006947288411553855        -0.0009264523519004627

        11.3413546        3.70291047        15.13933388 m 1 1 1 v -0.0007493452460139013        -0.0004381433619486283        -0.0009211789574039693

        13.86807738        3.56735819        15.04340973 m 1 1 1 v -0.0003589671696878863        0.0005845470162167748        6.187768170640579e-05

        16.28085353        3.57341896        15.05959448 m 1 1 1 v -0.00012285425417298346        0.0004691956440832644        0.0003620820969289566

        -2.29036728        5.82430614        15.02760059 m 1 1 1 v 0.0010125175819691954        -0.0006657799560367436        -0.0001826792779916448

        -0.44253745        5.75121415        15.01684877 m 1 1 1 v -0.0009134369378435736        -0.00026426652463853084        -0.00034193781439317535

        2.3450827        5.83094925        14.9784931 m 1 1 1 v -0.0009239715686359801        -0.0006139599729930841        -0.0008070930511977418

        5.01831244        5.76434371        14.84681536 m 1 1 1 v 0.00048763361816321626        -8.699563634127274e-05        -0.0003491165771581158

        7.71011934        5.81005488        14.83173494 m 1 1 1 v -0.0008438438057849938        -0.0003518609623745842        -0.00019527581396860353

        9.94556417        5.76714112        15.10925955 m 1 1 1 v 0.00016293388473407786        -0.0004998168268168258        0.0001467221265972952

        12.38471583        5.55359812        14.77013838 m 1 1 1 v -0.0004008585934308648        -0.00016084572625940424        0.000968174948204438

        14.90409772        5.83940627        14.85163555 m 1 1 1 v -9.367137003372257e-06        -0.0006966658104282847        0.0007057037560060419

        -3.68584382        7.85451897        15.00693567 m 1 1 1 v 0.0006166381005826426        0.0002699041528027522        -0.00035534620670386847

        -1.02745761        7.78517387        14.94791472 m 1 1 1 v -0.0005662151712720622        -0.0001417700801774844        -0.0004127048861176703

        1.48892932        7.95869332        14.99266185 m 1 1 1 v 0.001575771526441246        -0.0006854661456794897        -0.0004447525705426816

        3.69047288        7.90618369        15.23889069 m 1 1 1 v -0.0005869392440347501        -0.0009300046532446034        4.4481850484346174e-05

        6.2177136        7.72861835        15.40662686 m 1 1 1 v 0.0004066931832691419        -0.0005469797828915517        6.997778809859422e-05

        8.79754431        8.09058847        15.02686273 m 1 1 1 v -0.0009441531345805448        0.0004141965519022239        0.0010743778361761384

        11.29887027        7.7314997        14.88259533 m 1 1 1 v 0.0008903394946825167        -0.0009062389216346568        0.0007234798962708792

        13.72639964        8.24297755        14.84280386 m 1 1 1 v -0.0004403616338860893        5.2007445932068746e-06        6.522959970314719e-07

        -5.07124662        10.25255047        15.04708023 m 1 1 1 v 0.00033959841333362263        -0.00020439253277520662        -0.0003958701045939516

        -2.53923334        9.71829181        15.06339344 m 1 1 1 v 0.00036745126133091137        -0.0016259340781648514        -0.0005659514911090704

        0.00704417        9.85117505        14.92183303 m 1 1 1 v 5.857928226539438e-05        0.0004848177298338014        1.0416465371789549e-05

        2.65162243        10.18504971        14.83896204 m 1 1 1 v -0.0010293303672980236        0.00117573301997958        0.00016029546928809956

        7.66948273        10.24278478        15.57197264 m 1 1 1 v 0.00168725990628088        0.0006636346362600521        0.0001101772113575508

        10.26121365        10.30174454        14.97978351 m 1 1 1 v 0.0001654564958734101        0.0008059101213502732        0.0003725831114863106

        12.70732586        10.19955152        15.1585686 m 1 1 1 v -0.00047949644707676953        -0.0009511266499722055        -1.6431639844144403e-05

        -6.5358471        12.20095188        14.81788637 m 1 1 1 v 0.00042553102254852976        0.0002812022056748147        -0.0002640657774494294

        -3.79243423        12.44278392        15.05199901 m 1 1 1 v -0.00021045891082407324        9.961136141206592e-05        -8.01525535450458e-05

        -1.41721044        12.41956507        14.86021454 m 1 1 1 v -0.0005583656103160463        -0.0003102959460222113        -0.0005098139086405344

        1.05304397        12.60572695        14.81477495 m 1 1 1 v 0.0006301122624178276        -0.0009210206323266573        0.00015106777459012054

        3.60395274        12.45755579        14.90662968 m 1 1 1 v -0.001659749760096432        1.3218001331288337e-05        4.138967546431078e-06

        6.0693526        12.21576012        15.30562641 m 1 1 1 v 0.001011488877674923        0.0012852207116146616        0.0007462776972140329

        8.66414485        12.50973073        14.97202401 m 1 1 1 v -0.0010587405551637486        0.0002543747334750682        0.0006629379089033587

        11.21579503        12.2606841        15.00613259 m 1 1 1 v -0.00106298008983586        -0.0005079006876946067        0.00023524905002339576

        -7.42023909        13.84344547        14.77009863 m 1 1 1 v 0.0002678402868336428        -0.0018218200417483045        -0.00041324539227439766

        -4.94402896        14.61121914        15.04766204 m 1 1 1 v 0.0008599245985657697        0.00032278308683302204        -0.0004859192951844962

        -2.47253927        14.44493931        15.07334276 m 1 1 1 v -0.0007819146877804563        0.0005120940296300132        -0.0003874700594453201

        0.06990487        14.47000544        15.10298786 m 1 1 1 v 0.0003887981607690689        0.0014574728129366104        0.0003151678025207337

        2.7520384        14.63300304        14.99947111 m 1 1 1 v 0.0009073451891125696        -0.0004477914242496221        -0.00018708940466478682

        5.14805428        14.33697392        15.08688148 m 1 1 1 v 0.0003900996869836121        7.927916030265402e-05        0.0003455917511348738

        7.92004007        14.85797259        14.90591545 m 1 1 1 v 0.0010032132374549632        -0.000317451621972483        0.0018149646655678787

        10.19534346        14.42997374        14.80292116 m 1 1 1 v -0.0006362411479205021        0.0007518893945799043        0.0003842120837688133

        -9.04250597        16.62415083        14.91461697 m 1 1 1 v 0.00029492088680805744        -0.0009894110538788475        0.00019970407628332385

        -6.2336228        16.94424569        14.9025375 m 1 1 1 v -5.3351027452112365e-05        0.000510568761488114        1.3227423050409192e-05

        -3.26238653        16.61922777        15.18321775 m 1 1 1 v 0.0005357893362962429        -0.0002232612389558383        -0.00019531056991800556

        -1.30325913        16.7132596        14.94280219 m 1 1 1 v 0.0010753635009452642        0.00011100919182667178        -0.0004055586349351362

        0.9265016        16.52310335        15.09193744 m 1 1 1 v -0.0013846233925991992        -0.0010039265514769906        -0.0005139782645521889

        3.68779224        16.6563233        15.07372922 m 1 1 1 v 0.0008643414477090886        0.0011067146428865643        -0.0006076187924453404

        6.36674019        16.42919494        14.8897747 m 1 1 1 v -0.00023802485667835232        0.00014114392104747566        0.0007356690963947587

        8.70731632        17.01455063        14.91670994 m 1 1 1 v 0.00043505626740008256        0.0009006809072584701        0.0008819861254105345

B
0.0000   #magnetism
63
        1.45672446        0.67983915        15.02848505 m 1 1 1 v -0.0002623021060807605        -0.00046067856415017624        -0.00027260435429105837

        3.53563307        0.73693573        15.0405664 m 1 1 1 v 0.0004104111200747432        0.0004859463687786626        -0.0002798355672288646

        6.3111281        0.50632285        14.78258072 m 1 1 1 v -0.00021688879511983403        -0.0001146031367311716        0.0011594773308896136

        9.051326        0.79385882        15.24270175 m 1 1 1 v 0.0007950763659008855        -0.0006219133416653757        -0.0007026856795177316

        11.31420214        0.77442266        14.7340104 m 1 1 1 v -0.000750443256460422        6.214943765012942e-05        0.0008963435763955333

        13.43536716        0.80229805        14.85331956 m 1 1 1 v 0.00013510031537072886        -0.0014216572140095345        0.0016111315278485145

        16.57015024        0.56068263        15.19365276 m 1 1 1 v -0.00026194433210705975        -0.0006949949523598433        -0.0014346534289193602

        19.00932236        1.037007        15.12728793 m 1 1 1 v 0.0004805559448905602        0.0009524741272464318        -0.0013438037615212113

        0.17746259        2.61130071        14.75026815 m 1 1 1 v -0.0005931592997267562        0.0004023042137021369        0.0007394287789954195

        2.41012106        3.41566282        14.9447787 m 1 1 1 v -0.0015836964793712195        0.0013583844529493393        0.00012358470888837944

        5.03196132        2.54780196        14.81737599 m 1 1 1 v 6.986392571491095e-05        0.0001067959045363935        0.00011908857659162036

        7.5062202        2.91975543        14.93660083 m 1 1 1 v 0.0004240745206471975        0.00020137981833354056        0.00031391488394797964

        10.12270263        3.0020231        14.74740787 m 1 1 1 v 0.0008076562964496535        0.0009349493362328293        0.0023998437317497836

        12.49022257        2.90075605        15.03667862 m 1 1 1 v -1.2033056291496805e-05        0.0003305322671119775        0.001521609119438094

        15.17353376        2.78319893        14.8242255 m 1 1 1 v -0.0005425683662748801        -0.00013650707593571145        0.0003106393086058272

        17.56582159        2.8654296        15.37842706 m 1 1 1 v 0.0005446776797144251        -0.0005033003347633595        -0.00024122161248617293

        -1.42996583        4.7708145        14.91907795 m 1 1 1 v 0.0004075494110383722        -0.0006448189473458515        -5.466810779928281e-05

        1.00316415        5.13218957        14.68014622 m 1 1 1 v 0.0006593246872853364        0.0006249590414484187        0.001101337260804951

        3.58534836        5.04812325        14.88328655 m 1 1 1 v 0.0004418709406390348        -0.00034984570732442423        6.98040646341622e-05

        6.27368296        4.93126298        14.86465691 m 1 1 1 v -0.001155865856392526        -0.0010817179273481187        -0.00037253028465902794

        8.71009551        4.97296251        14.6561446 m 1 1 1 v -0.00023810572412823384        -1.9163130225944787e-05        0.0011062528816266912

        11.23698178        5.11820987        14.9745949 m 1 1 1 v 0.001154183772843136        -3.9393424085368385e-05        -7.953845825090751e-05

        13.87452184        4.85839179        15.1895952 m 1 1 1 v 0.00012358523368118012        -0.0013448460160266633        -0.002273039126964781

        16.50150445        5.21971925        14.87745398 m 1 1 1 v -0.0012700394871629766        0.0010925934067849204        -0.00016455503760511614

        -2.43434489        7.20795828        14.82979808 m 1 1 1 v 9.966343421999088e-05        -0.0004536906464039291        0.0006421759516160502

        0.17680264        6.92964735        14.96856777 m 1 1 1 v -0.0002234559280327953        -0.000816446810289911        0.0002479249831492224

        2.50586697        7.42885557        14.88815948 m 1 1 1 v -0.00048443938158461056        0.0008459030554349487        0.0006820496485130238

        5.06237396        7.03623105        14.95020534 m 1 1 1 v 0.0003067645991509328        -0.0003091378481516473        0.0007458435640897187

        7.74556367        7.06456058        15.34747809 m 1 1 1 v 0.0014160937164019978        0.0005397137715891921        -0.0013205089644958282

        10.21674966        7.11871905        15.15642776 m 1 1 1 v 0.0002870567559772374        0.0010432945872018572        -0.0006453194349900785

        12.34255242        7.02994032        15.09230979 m 1 1 1 v -0.0003830827825194064        -0.00014947314851529358        -0.001717421221742645

        15.1606088        7.258661        15.11408151 m 1 1 1 v 0.0004794466936094608        0.00019444193438656934        -0.0010933606132478518

        -3.99296293        9.43516067        14.90694157 m 1 1 1 v -0.0002205512583045349        0.0009118993382057889        0.0009206942770538464

        -1.12756618        9.03273235        15.03386408 m 1 1 1 v 0.00013900193965609857        -0.0007081091118210223        0.00034038862949199256

        1.33729039        9.63868477        14.72703459 m 1 1 1 v -0.0006591095663226397        0.00022152559375277492        9.74497854748548e-05

        3.49282761        9.29692197        15.37793429 m 1 1 1 v -0.0007896816226764625        -0.00029340493699856976        -0.00013650089855855738

        8.92765074        9.45956895        15.36344958 m 1 1 1 v -0.0006056159978400253        -0.0008594052234474632        -0.0005958050933046996

        11.56944739        9.55621324        15.0917943 m 1 1 1 v 0.0007616059462876813        0.0007672049834122356        -0.0003205590336466457

        13.92772009        9.67716769        14.63503225 m 1 1 1 v -0.00043240442941027194        -0.00022879664485698305        0.0013807657420278183

        -4.99958021        11.69331464        15.2377184 m 1 1 1 v 0.000873844315175253        0.00037994009308421454        -0.0006147064640475798

        -2.54509242        11.80387734        14.79336093 m 1 1 1 v -0.0014502746872825665        0.001628949407264425        0.0005332691559492197

        -0.1840151        11.69537442        15.01978937 m 1 1 1 v -0.00045106017193568144        -0.001159611468672524        -0.0003742336993732746

        2.14949764        11.68745432        15.15819047 m 1 1 1 v -5.369155483919045e-05        0.0010644968288239219        -0.0012627480640264486

        4.9116502        11.56154605        15.124175 m 1 1 1 v -0.0007396082356652887        0.000593826300506424        -0.00016567603520894746

        7.40109445        11.64827139        15.17852117 m 1 1 1 v 0.0001319424064398929        -0.0009411998167245073        0.00025374433795906636

        9.97682692        11.59840238        14.82013117 m 1 1 1 v -7.747556180892753e-05        1.768171209379638e-05        0.00045361357092318417

        12.19314612        11.54898038        14.81852092 m 1 1 1 v 0.0006827392407097576        -0.00015133563550985592        -5.276669108643429e-05

        -6.25164346        13.69165918        15.04374549 m 1 1 1 v 0.0002569991830265158        0.0007884345171794369        -0.0003344093637500803

        -3.72399725        13.84287636        14.91530164 m 1 1 1 v -5.325796131626018e-06        -0.0008829286604375936        0.0010212358157060616

        -1.07394623        14.0602068        15.04753302 m 1 1 1 v -0.0005471231865618561        -0.0006400817113176959        0.00013817364524794493

        1.3158686        13.92421074        14.79860811 m 1 1 1 v 0.0009525312416577728        0.0009836822931758682        0.0001478675181574774

        3.84027044        13.79644884        15.00316467 m 1 1 1 v -0.0005281073638863611        0.0006314939996761255        0.00024886435160997053

        6.58463219        13.79344668        15.37393299 m 1 1 1 v -0.0006047144680919143        -0.0010107134470521907        -0.0012277950873694121

        8.82061526        13.93964937        15.18147357 m 1 1 1 v -2.1695266797720548e-05        0.000785149042465862        -0.0016548246734072762

        11.35680963        13.64988861        14.92969256 m 1 1 1 v 0.0001267896569469597        -5.1803209978042554e-05        -5.182397679237192e-05

        -7.63021463        16.44223966        15.3473372 m 1 1 1 v -0.0005968302954245224        0.001696566202478487        -0.0008608280081327555

        -4.96774088        16.07395113        14.98068058 m 1 1 1 v -0.0005790458519684453        -0.0008751760750946796        0.0007870408807152526

        -2.38384011        15.89445959        14.80816801 m 1 1 1 v 5.367972828954173e-05        6.635594521953819e-05        0.0005407202978226593

        -0.20254266        15.96917695        14.9062379 m 1 1 1 v -0.0002709125589692221        0.0009236509069034613        0.0004068253952356961

        2.42773094        15.83689974        15.19607008 m 1 1 1 v 0.00017900053442945153        -0.0008490059388347606        0.00030964287778105065

        4.89910673        15.9202976        14.82389979 m 1 1 1 v 0.0007350077816578577        0.0007333429440912171        0.0009343044581360313

        7.78547339        15.94903152        15.38761423 m 1 1 1 v 0.000217420414866213        0.00026263285468726665        -0.001718546638963685

        9.84712427        15.97057674        14.66368988 m 1 1 1 v 0.002053828308190056        0.0008508650340116209        -0.0009859310640578309

