ATOMIC_SPECIES
Ti  47.867  /home/jinming/on-the-fly-mlffs/1step/TiNB/upf/Ti.upf
N   14.007  /home/jinming/on-the-fly-mlffs/1step/TiNB/upf/N.upf
B   10.81   /home/jinming/on-the-fly-mlffs/1step/TiNB/upf/B.upf

NUMERICAL_ORBITAL
/home/jinming/on-the-fly-mlffs/1step/TiNB/orb/Ti_gga_10au_100Ry_4s2p2d1f.orb
/home/jinming/on-the-fly-mlffs/1step/TiNB/orb/N_gga_10au_100Ry_2s2p1d.orb
/home/jinming/on-the-fly-mlffs/1step/TiNB/orb/B_gga_10au_100Ry_2s2p1d.orb

LATTICE_CONSTANT
1.8897260000

LATTICE_VECTORS
    20.0763846187        0.0000000000        0.0000000000
    -10.0381923094       17.3866592300        0.0000000000
    0.0000000000        0.0000000000       30.0000000000

ATOMIC_POSITIONS
Cartesian

        
Ti
0.0000   #magnetism
1
        6.32312014        9.42170055        16.37504365 m 1 1 1 v 0.00015587258218220123        7.790194855094704e-05        0.0001183973245082508

N
0.0000   #magnetism
64
        4.72938974        10.23630011        15.34292536 m 1 1 1 v -3.862281579457936e-05        -0.00037393966837670744        -9.64975225882215e-05

        0.32901792        1.28004519        15.00439106 m 1 1 1 v 0.0008074863112257042        -0.000907178887683301        0.00025016523874641847

        2.23051588        1.69635309        14.95197399 m 1 1 1 v -0.0006992312069228926        0.000579550099587631        -0.00018123234987466865

        4.9457728        1.18417263        15.03662996 m 1 1 1 v -0.0003671725955727343        -0.0007517760146480865        0.00023704158494299436

        7.51871102        1.44470418        14.94915668 m 1 1 1 v 0.00046025296947806654        0.00035064405436837303        -0.0002901322612096225

        10.28505318        1.4003445        15.1945345 m 1 1 1 v 0.0009824197454329233        -0.0001724227101498554        0.0004185237753926343

        12.39580992        1.4115841        15.27014892 m 1 1 1 v -0.0005849639216483171        0.00040850862134004254        0.0011351020731248985

        14.75137025        1.553951        15.07064635 m 1 1 1 v -0.00121787898914767        0.0004978467849777529        0.00019336507706841998

        17.54194487        1.7264432        14.76371605 m 1 1 1 v 0.00013710544996042926        0.0013812825425286686        -0.0007368926407946383

        -1.29757367        3.43464916        14.94838005 m 1 1 1 v 0.0012293212756949237        -0.0005623729751837467        -0.00036902180095349675

        1.21591425        3.71488055        15.07810619 m 1 1 1 v -0.00021908275094698068        -0.00023253736913020283        0.00035694537767482344

        3.83786657        3.63776121        14.87103388 m 1 1 1 v -0.0001301644581308176        -0.00017647764959865872        -0.00011051601427004319

        6.2326869        3.45647704        14.8582114 m 1 1 1 v -0.0007779744534930815        -0.0003945091610123568        -0.0003254895508224538

        8.81831154        3.72683183        15.12477391 m 1 1 1 v -0.0001751225949708929        0.000147782253590913        0.0007592694599917386

        11.35258768        3.78063322        15.21254565 m 1 1 1 v 0.0002509115482234683        0.00016405347756367895        0.0003374908161772851

        13.87125175        3.44357132        15.01470626 m 1 1 1 v 0.00036130400532777485        -0.00014212201784395099        0.00012282652167113295

        16.42853689        3.59804758        15.02665422 m 1 1 1 v -0.0003462081400066747        -0.0005663545983887068        1.8525538373607637e-05

        -2.50185465        5.9006493        15.02883273 m 1 1 1 v 0.0005983201704856416        5.3031936378370486e-05        0.00019278395796453292

        -0.18950892        5.70952667        15.01818056 m 1 1 1 v -0.0012863975246282834        9.636502251080786e-05        0.000306819170339875

        2.49276756        5.89363059        15.04437311 m 1 1 1 v -0.00046181445474444876        0.00013312970780876787        0.00017780984652553553

        4.90647685        5.65351895        14.89209421 m 1 1 1 v 0.00016420888631600363        0.00027281186170931314        -9.425321325449861e-05

        7.68258912        5.76372575        14.85044457 m 1 1 1 v 0.000774038488559984        0.00037150156978945075        -8.379915432508548e-05

        9.91829595        5.732529        15.03050013 m 1 1 1 v -1.2751782202195356e-05        0.0004033194743705955        0.0004477241533337798

        12.52094009        5.64615059        14.71718854 m 1 1 1 v -0.0004533205093091426        -0.000676133102189935        -0.0006921596155525164

        14.99855484        5.90918646        14.82928074 m 1 1 1 v -0.00047646402813005266        9.620382288025351e-05        -0.0006332965147603034

        -3.792701        7.91337513        15.03769552 m 1 1 1 v 0.00021723021071308306        -0.0005396070761712366        6.827494736845067e-05

        -1.04506668        7.71862581        14.98125707 m 1 1 1 v 0.0009807505553085076        -0.00027860610645975804        9.356957349956133e-05

        1.11379101        8.13281018        15.02405221 m 1 1 1 v 0.000689028086907942        -0.00024736171029885        0.00010820463527046223

        3.85665013        7.98791156        15.1702595 m 1 1 1 v -0.0003600161612537244        0.00021193927397106184        0.0006068092871004409

        6.26509626        7.76592531        15.42291987 m 1 1 1 v -0.00044910889907663544        0.00012595372034089538        -0.00018400103180543165

        9.00666518        7.92944725        14.97130588 m 1 1 1 v -0.0003180896176734593        0.0006685324464209063        -0.0005633832958764655

        11.18715638        8.00191245        14.83779056 m 1 1 1 v -7.961235511032675e-05        -0.0009118538028989991        -0.0005134905353027922

        13.9166668        8.13754229        14.87182541 m 1 1 1 v -0.0007469685539640011        0.0010109967883740552        -0.000303395659181523

        -5.05975871        10.30864339        15.0869055 m 1 1 1 v -0.0002626865351743802        0.0002989186168536294        0.00024873354196288164

        -2.60209083        10.10611715        15.10293389 m 1 1 1 v -5.554650387363865e-05        -0.0017093263368000565        0.0002871061564067175

        0.02810546        9.9196013        14.91964054 m 1 1 1 v -6.895463849904008e-05        -0.0008587260449902144        5.1192463779283254e-05

        2.61114877        10.09036179        14.82385497 m 1 1 1 v 0.000817863866863283        -0.0001269835524845241        -0.0001560409282951631

        7.4703583        10.15339326        15.5093054 m 1 1 1 v -0.0002434669273870845        -6.335564376868102e-06        0.00041406082432316496

        10.15022246        10.11348702        14.95370429 m 1 1 1 v 0.0006844957687155696        0.00039940856003744445        -0.00011293943150470368

        12.7262071        10.29205758        15.09368105 m 1 1 1 v 0.00044034505644548503        0.00032952643907365316        0.0006132242766073526

        -6.45731505        12.17756331        14.92903371 m 1 1 1 v -0.0009552255241849518        -6.715326466514195e-05        -0.0006327111857805056

        -3.7641538        12.37737568        15.03990021 m 1 1 1 v -0.00011625697212185874        0.00038868166612998135        0.00025489829218398375

        -1.20315947        12.59673828        14.96609856 m 1 1 1 v -0.0005221361888828826        -0.0003821612813668925        -0.00034327757186007607

        0.98607061        12.54043602        14.84093814 m 1 1 1 v -0.00048661661953980015        0.0012725517453102467        -0.00033471103181305985

        3.91322948        12.32511671        14.95866117 m 1 1 1 v -0.0006773909767295303        0.000711028616602553        -0.00036761716520418853

        6.1475191        12.11364095        15.18571253 m 1 1 1 v -0.00117845520961296        -0.0003956978740462149        0.00030354865124234613

        8.82654026        12.40430568        14.88787861 m 1 1 1 v -0.0003399636750602289        0.0005225157417939231        2.8006892152030545e-05

        11.20815592        12.34004578        14.95763442 m 1 1 1 v 0.00031706933923021684        6.598879903442319e-05        0.0002420200498024676

        -7.50836078        14.19789721        14.8207325 m 1 1 1 v 0.0003079446509840872        -0.001457661988794383        -0.00026184962952320275

        -5.10764761        14.56474752        15.10721832 m 1 1 1 v 0.000174008570147096        0.0002666240133597249        2.5239247098261516e-05

        -2.36587868        14.48152538        15.0709691 m 1 1 1 v 0.0004405014380941853        -0.0005726810738592041        0.00037920590689083286

        0.07164385        14.36317241        15.02539655 m 1 1 1 v 0.0001268430286926361        -0.00030762442873520657        0.0003909064958347766

        2.4463128        14.54240195        14.99120299 m 1 1 1 v 0.0012012844978751655        0.0008240370130752348        0.00018060820533829172

        5.16706197        14.41653222        15.02820129 m 1 1 1 v -0.00017458017492539996        -0.0004944396526146278        0.00018385127618744475

        7.65180554        14.70288387        14.7380276 m 1 1 1 v 0.0008958586117502558        0.001135921965737192        -0.000727331341922433

        10.10359982        14.41485949        14.79991891 m 1 1 1 v 0.0010721287543695554        -0.0003981466259406048        -0.0004286868097895861

        -8.94213387        16.89067765        14.93177944 m 1 1 1 v -0.0007648693732428594        -0.000386308149568855        -0.0003732783962149251

        -6.23423384        16.71560142        14.95834404 m 1 1 1 v 9.10735259394278e-05        0.0008862566763192211        -0.0005471921186366582

        -3.60837258        16.64503569        15.14803208 m 1 1 1 v 0.0018228822861055876        0.00010679120204437955        0.0007506996161409048

        -1.4180828        16.71572642        15.00493988 m 1 1 1 v -0.00019040826703376517        0.00015165970729856223        -0.00014531162517287673

        1.30384599        16.76084793        15.1268717 m 1 1 1 v -0.0011015897582589056        -0.0006531045645327115        0.00020626830400781728

        3.5775008        16.54219241        15.10688432 m 1 1 1 v -0.0003763904004316771        -0.00020371581787601904        0.0003781019633996828

        6.48233342        16.42851712        14.88335398 m 1 1 1 v -0.00039285916299474277        -0.0003986656345088943        -0.0006944464733621362

        8.65794456        16.76204473        14.84777066 m 1 1 1 v -9.293223187689675e-05        0.0009388769516258792        -0.00039286764256582117

B
0.0000   #magnetism
63
        1.40425111        0.69505674        15.03394574 m 1 1 1 v 0.0005483705524565487        0.0004099529302498819        9.412457432276175e-05

        3.56737053        0.85927931        15.05828741 m 1 1 1 v -0.0011566411051390263        -0.0001015587207118773        0.0001329413262374989

        6.42014774        0.67544385        14.74104376 m 1 1 1 v -0.00022672496718236247        -0.0009164872517459358        -0.0008405792479798804

        8.83194522        0.84259652        15.20667948 m 1 1 1 v 0.0007952104921940416        0.00034731870963770146        0.0009251753049657469

        11.45986987        0.55293711        14.77121739 m 1 1 1 v 5.143668769929091e-05        0.000897843210336451        -0.0012352859062795343

        13.56538289        0.95017114        14.75148143 m 1 1 1 v -0.0012968028881351114        0.00011333355956028599        -0.0007463318734061252

        16.52665148        0.69372021        15.28969462 m 1 1 1 v 0.0006552340361280104        -0.0003773097038126115        0.0008335351670828196

        18.84427091        0.76858467        15.22577561 m 1 1 1 v 0.0004070163608688296        0.0008802481915657602        0.0007010072896635496

        0.15084903        2.62373574        14.76018514 m 1 1 1 v 0.0009148641485188266        -0.000993194812859595        -0.0008691790135447664

        2.67105826        2.87532824        14.92827231 m 1 1 1 v 0.00010252995898646022        0.0022159323380460216        -3.640248002622879e-05

        4.89546263        2.76191201        14.83161857 m 1 1 1 v 0.00028492727188980427        -0.0011656630922408863        -0.000309881536674075

        7.4151108        2.86449564        14.88757804 m 1 1 1 v 8.75785608763365e-06        0.0001378706321941003        -6.040519588729296e-06

        9.97864297        2.91341666        14.59839803 m 1 1 1 v 0.00028863330598147356        1.3377220530323278e-06        -0.0012916190694283102

        12.63018381        2.9300069        14.87067548 m 1 1 1 v -0.0006004621670867244        -0.0003295245392590551        -0.0002686490004638445

        15.08894635        2.93054807        14.86419906 m 1 1 1 v 0.000760311152124874        -0.0005499264384246171        -0.0006901011339475384

        17.59134676        3.17404414        15.25572953 m 1 1 1 v -0.0007230180047285288        -0.0005599828347649089        0.0012906849876266236

        -1.34889697        4.96727461        14.92272843 m 1 1 1 v -0.0008269704020642033        -0.0007262788086072426        -6.633773018530596e-05

        0.88918992        5.01345351        14.70445543 m 1 1 1 v -0.0004754079408820831        0.0003218328395294478        -0.0011371688985933326

        3.69513154        5.04827683        14.87482025 m 1 1 1 v -0.0008783758229411298        0.0001114011315076025        -5.395545252511588e-05

        6.42478783        5.14218154        14.90396881 m 1 1 1 v -4.294018311066508e-05        -0.0003964543230678341        2.0268855736986364e-05

        8.9180596        5.07400201        14.66448072 m 1 1 1 v -0.0007700131612909806        -0.0004984363039063376        -0.0010557714583790169

        11.05633307        5.04210515        15.00388701 m 1 1 1 v -0.00040770390679680375        0.0003111926608887424        -5.598530409296098e-05

        13.79293622        5.09588584        15.3539181 m 1 1 1 v 0.000290597247991081        -0.00043901113250665176        0.001152987091520018

        16.57075179        4.87305317        14.95581305 m 1 1 1 v 0.000721540510980664        0.0009807714698825557        -0.0004348687798144824

        -2.34340699        7.36193521        14.82181427 m 1 1 1 v -7.563459081241328e-05        -0.0004536755252200388        -0.000603669960641246

        0.16898303        7.30266505        14.9429949 m 1 1 1 v 0.0004130020011002627        -0.0012460648378837785        -3.0022245991132576e-05

        2.5831312        7.17725995        14.85131039 m 1 1 1 v 0.0002458765122826138        0.0005133569622914374        -0.0004948409603865016

        4.92409959        7.28405119        14.96597655 m 1 1 1 v 0.00048692989198184503        -0.000787333444212999        -0.0007765189283708711

        7.45164149        7.15605566        15.41662332 m 1 1 1 v 0.0008243476267360154        -0.0007910061029836802        0.0008705523368308737

        9.89414641        7.14413921        15.1765642 m 1 1 1 v 0.0012842615349057962        -0.0012429481502322277        0.0005485876661590641

        12.53573869        7.09280545        15.21948737 m 1 1 1 v -0.0004931786437505127        -0.0005846318549923517        0.0008395774335530145

        14.89084633        7.31384589        15.15532931 m 1 1 1 v 0.0009699774029193085        -0.00047707151621194767        0.0007450705627144105

        -3.81293536        9.24497251        14.8528668 m 1 1 1 v -0.0007430094219796034        0.0001470215536776389        -0.0005272031163256008

        -1.29552233        9.28232031        14.96794307 m 1 1 1 v 0.0006811255956283733        -0.0009709117504300539        0.00017815693928139938

        1.41334657        9.3337445        14.80863343 m 1 1 1 v 0.0005134466384015892        0.0015039073805965932        -0.0007215003504894488

        3.82758682        9.38817149        15.32638132 m 1 1 1 v -0.0010584977802880098        -0.0004927389338316132        0.0007637544849643942

        8.94172107        9.55556019        15.34693669 m 1 1 1 v 0.00035658604629396973        0.0001611562186275753        0.000776515193031335

        11.40536407        9.34563007        15.07708384 m 1 1 1 v 0.0005654868905495997        0.0005915408918644848        0.0004765792931878281

        13.82447106        9.53915805        14.61178999 m 1 1 1 v 0.0007002716197134388        0.0010718043764355626        -0.0013561457242523833

        -5.2778223        11.6674962        15.178974 m 1 1 1 v 0.000610630492910647        1.7416303526490645e-05        0.0009539112022576004

        -2.38516746        11.38576476        14.82790848 m 1 1 1 v 1.9118063624719224e-05        0.001278690185743865        -0.0009004288010929454

        -0.12148888        11.89833359        15.00986287 m 1 1 1 v -0.00044515933327826256        0.00018710215268175016        0.00029318067731475114

        2.35127357        11.58162693        15.19627926 m 1 1 1 v -0.001183475426597616        4.142590286260067e-05        0.0009691272839110827

        4.80169644        11.45683699        15.16908878 m 1 1 1 v 0.0006444378430444087        -0.0004104502141155292        -0.00016707015268155534

        7.41510548        11.76794293        15.16407203 m 1 1 1 v -0.0003736783319157918        8.278787026987131e-05        -1.4413271580882103e-06

        10.0706318        11.73062691        14.83232023 m 1 1 1 v -0.0006413190807945928        -0.00035316506926514566        -0.0004933081643931329

        12.53557654        11.59738821        14.87703772 m 1 1 1 v -0.0019773262237215575        -0.00030298464091962137        -0.000488681449216868

        -6.21807066        13.51587525        15.06750182 m 1 1 1 v -1.53108450764052e-05        -9.464127111952649e-05        0.0001477305508681083

        -3.74118773        13.92257219        14.83934376 m 1 1 1 v 0.000152790851117257        0.00043520084961222433        -0.0004962776177221609

        -1.264291        13.75054318        14.99595938 m 1 1 1 v 0.0007334183291103855        0.0021555891866961233        0.0002343139722229787

        1.36113721        13.90850471        14.85005682 m 1 1 1 v -0.000787397548209277        -0.00022953559884599566        -0.000530172803927494

        3.88758422        13.7390589        14.9706175 m 1 1 1 v 0.00042330594799223686        -0.00017471506334744942        2.7674275966569596e-05

        6.33911184        13.93453463        15.35594179 m 1 1 1 v 0.002345121637139833        -0.00010726009771650625        0.0013529776273946276

        8.97712397        13.83667101        15.24515247 m 1 1 1 v -0.0005430790806602104        7.596091161560925e-05        0.0012159111299013387

        11.35940713        13.68679353        14.93071811 m 1 1 1 v -1.3804080756250904e-05        -0.00038673825818314936        0.00010051638228679091

        -7.53025666        16.10889292        15.32734171 m 1 1 1 v -0.00025050204058851497        0.0009456077446028179        0.001189867324246432

        -4.78465704        16.0669989        14.92933551 m 1 1 1 v -0.0003052294878909365        0.00047440844847317207        -0.0003753054163080616

        -2.37932083        15.75913766        14.79826037 m 1 1 1 v 0.0004236906867235913        0.0001729950843694948        -0.000630033159362272

        -0.08897727        15.77645355        14.90665337 m 1 1 1 v -0.0006402555312427929        -0.0001332957474024482        -0.00046068050942647446

        2.3530422        16.13688442        15.09358607 m 1 1 1 v 0.00015768440362222804        -0.0005094160912502159        0.000529623641680244

        4.87085016        15.73539655        14.81842117 m 1 1 1 v -0.00045082961786379905        0.00016134458292363902        -0.0008178375558984451

        7.60473828        16.159848        15.4121366 m 1 1 1 v 0.001242617560554882        -0.0006330340760937879        0.001690858673429252

        9.74464002        15.7348537        14.88125814 m 1 1 1 v -0.0014123365254101131        0.0004474693221338719        -0.0007049022804737148

